 # GaN with wurtzite structure with box vectors H1=[2-1-10], H2=[-12-10], H3=[0001].
  
        4000  atoms
           2  atom types
 
      0.000000000000      31.890000000000  xlo xhi
      0.000000000000      55.235100253371  ylo yhi
      0.000000000000      25.925000000000  zlo zhi
 
Masses
 
            1   14.00700000             # N
            2   69.72300000             # Ga
 
Atoms # atomic
 
         1    1        1.594500000000       0.920585004223       4.536875000000
         2    1        0.000000000000       3.682340016891       4.536875000000
         3    2        1.594500000000       0.920585004223       2.592500000000
         4    2        0.000000000000       3.682340016891       2.592500000000
         5    1        0.000000000000       1.841170008446       1.944375000000
         6    1        1.594500000000       4.602925021114       1.944375000000
         7    2        0.000000000000       1.841170008446       0.000000000000
         8    2        1.594500000000       4.602925021114       0.000000000000
         9    1        4.783500000000       0.920585004223       4.536875000000
        10    1        3.189000000000       3.682340016891       4.536875000000
        11    2        4.783500000000       0.920585004223       2.592500000000
        12    2        3.189000000000       3.682340016891       2.592500000000
        13    1        3.189000000000       1.841170008446       1.944375000000
        14    1        4.783500000000       4.602925021114       1.944375000000
        15    2        3.189000000000       1.841170008446       0.000000000000
        16    2        4.783500000000       4.602925021114       0.000000000000
        17    1        7.972500000000       0.920585004223       4.536875000000
        18    1        6.378000000000       3.682340016891       4.536875000000
        19    2        7.972500000000       0.920585004223       2.592500000000
        20    2        6.378000000000       3.682340016891       2.592500000000
        21    1        6.378000000000       1.841170008446       1.944375000000
        22    1        7.972500000000       4.602925021114       1.944375000000
        23    2        6.378000000000       1.841170008446       0.000000000000
        24    2        7.972500000000       4.602925021114       0.000000000000
        25    1       11.161500000000       0.920585004223       4.536875000000
        26    1        9.567000000000       3.682340016891       4.536875000000
        27    2       11.161500000000       0.920585004223       2.592500000000
        28    2        9.567000000000       3.682340016891       2.592500000000
        29    1        9.567000000000       1.841170008446       1.944375000000
        30    1       11.161500000000       4.602925021114       1.944375000000
        31    2        9.567000000000       1.841170008446       0.000000000000
        32    2       11.161500000000       4.602925021114       0.000000000000
        33    1       14.350500000000       0.920585004223       4.536875000000
        34    1       12.756000000000       3.682340016891       4.536875000000
        35    2       14.350500000000       0.920585004223       2.592500000000
        36    2       12.756000000000       3.682340016891       2.592500000000
        37    1       12.756000000000       1.841170008446       1.944375000000
        38    1       14.350500000000       4.602925021114       1.944375000000
        39    2       12.756000000000       1.841170008446       0.000000000000
        40    2       14.350500000000       4.602925021114       0.000000000000
        41    1       17.539500000000       0.920585004223       4.536875000000
        42    1       15.945000000000       3.682340016891       4.536875000000
        43    2       17.539500000000       0.920585004223       2.592500000000
        44    2       15.945000000000       3.682340016891       2.592500000000
        45    1       15.945000000000       1.841170008446       1.944375000000
        46    1       17.539500000000       4.602925021114       1.944375000000
        47    2       15.945000000000       1.841170008446       0.000000000000
        48    2       17.539500000000       4.602925021114       0.000000000000
        49    1       20.728500000000       0.920585004223       4.536875000000
        50    1       19.134000000000       3.682340016891       4.536875000000
        51    2       20.728500000000       0.920585004223       2.592500000000
        52    2       19.134000000000       3.682340016891       2.592500000000
        53    1       19.134000000000       1.841170008446       1.944375000000
        54    1       20.728500000000       4.602925021114       1.944375000000
        55    2       19.134000000000       1.841170008446       0.000000000000
        56    2       20.728500000000       4.602925021114       0.000000000000
        57    1       23.917500000000       0.920585004223       4.536875000000
        58    1       22.323000000000       3.682340016891       4.536875000000
        59    2       23.917500000000       0.920585004223       2.592500000000
        60    2       22.323000000000       3.682340016891       2.592500000000
        61    1       22.323000000000       1.841170008446       1.944375000000
        62    1       23.917500000000       4.602925021114       1.944375000000
        63    2       22.323000000000       1.841170008446       0.000000000000
        64    2       23.917500000000       4.602925021114       0.000000000000
        65    1       27.106500000000       0.920585004223       4.536875000000
        66    1       25.512000000000       3.682340016891       4.536875000000
        67    2       27.106500000000       0.920585004223       2.592500000000
        68    2       25.512000000000       3.682340016891       2.592500000000
        69    1       25.512000000000       1.841170008446       1.944375000000
        70    1       27.106500000000       4.602925021114       1.944375000000
        71    2       25.512000000000       1.841170008446       0.000000000000
        72    2       27.106500000000       4.602925021114       0.000000000000
        73    1       30.295500000000       0.920585004223       4.536875000000
        74    1       28.701000000000       3.682340016891       4.536875000000
        75    2       30.295500000000       0.920585004223       2.592500000000
        76    2       28.701000000000       3.682340016891       2.592500000000
        77    1       28.701000000000       1.841170008446       1.944375000000
        78    1       30.295500000000       4.602925021114       1.944375000000
        79    2       28.701000000000       1.841170008446       0.000000000000
        80    2       30.295500000000       4.602925021114       0.000000000000
        81    1        1.594500000000       6.444095029560       4.536875000000
        82    1        0.000000000000       9.205850042229       4.536875000000
        83    2        1.594500000000       6.444095029560       2.592500000000
        84    2        0.000000000000       9.205850042229       2.592500000000
        85    1        0.000000000000       7.364680033783       1.944375000000
        86    1        1.594500000000      10.126435046451       1.944375000000
        87    2        0.000000000000       7.364680033783       0.000000000000
        88    2        1.594500000000      10.126435046451       0.000000000000
        89    1        4.783500000000       6.444095029560       4.536875000000
        90    1        3.189000000000       9.205850042229       4.536875000000
        91    2        4.783500000000       6.444095029560       2.592500000000
        92    2        3.189000000000       9.205850042229       2.592500000000
        93    1        3.189000000000       7.364680033783       1.944375000000
        94    1        4.783500000000      10.126435046451       1.944375000000
        95    2        3.189000000000       7.364680033783       0.000000000000
        96    2        4.783500000000      10.126435046451       0.000000000000
        97    1        7.972500000000       6.444095029560       4.536875000000
        98    1        6.378000000000       9.205850042229       4.536875000000
        99    2        7.972500000000       6.444095029560       2.592500000000
       100    2        6.378000000000       9.205850042229       2.592500000000
       101    1        6.378000000000       7.364680033783       1.944375000000
       102    1        7.972500000000      10.126435046451       1.944375000000
       103    2        6.378000000000       7.364680033783       0.000000000000
       104    2        7.972500000000      10.126435046451       0.000000000000
       105    1       11.161500000000       6.444095029560       4.536875000000
       106    1        9.567000000000       9.205850042229       4.536875000000
       107    2       11.161500000000       6.444095029560       2.592500000000
       108    2        9.567000000000       9.205850042229       2.592500000000
       109    1        9.567000000000       7.364680033783       1.944375000000
       110    1       11.161500000000      10.126435046451       1.944375000000
       111    2        9.567000000000       7.364680033783       0.000000000000
       112    2       11.161500000000      10.126435046451       0.000000000000
       113    1       14.350500000000       6.444095029560       4.536875000000
       114    1       12.756000000000       9.205850042229       4.536875000000
       115    2       14.350500000000       6.444095029560       2.592500000000
       116    2       12.756000000000       9.205850042229       2.592500000000
       117    1       12.756000000000       7.364680033783       1.944375000000
       118    1       14.350500000000      10.126435046451       1.944375000000
       119    2       12.756000000000       7.364680033783       0.000000000000
       120    2       14.350500000000      10.126435046451       0.000000000000
       121    1       17.539500000000       6.444095029560       4.536875000000
       122    1       15.945000000000       9.205850042229       4.536875000000
       123    2       17.539500000000       6.444095029560       2.592500000000
       124    2       15.945000000000       9.205850042229       2.592500000000
       125    1       15.945000000000       7.364680033783       1.944375000000
       126    1       17.539500000000      10.126435046451       1.944375000000
       127    2       15.945000000000       7.364680033783       0.000000000000
       128    2       17.539500000000      10.126435046451       0.000000000000
       129    1       20.728500000000       6.444095029560       4.536875000000
       130    1       19.134000000000       9.205850042229       4.536875000000
       131    2       20.728500000000       6.444095029560       2.592500000000
       132    2       19.134000000000       9.205850042229       2.592500000000
       133    1       19.134000000000       7.364680033783       1.944375000000
       134    1       20.728500000000      10.126435046451       1.944375000000
       135    2       19.134000000000       7.364680033783       0.000000000000
       136    2       20.728500000000      10.126435046451       0.000000000000
       137    1       23.917500000000       6.444095029560       4.536875000000
       138    1       22.323000000000       9.205850042229       4.536875000000
       139    2       23.917500000000       6.444095029560       2.592500000000
       140    2       22.323000000000       9.205850042229       2.592500000000
       141    1       22.323000000000       7.364680033783       1.944375000000
       142    1       23.917500000000      10.126435046451       1.944375000000
       143    2       22.323000000000       7.364680033783       0.000000000000
       144    2       23.917500000000      10.126435046451       0.000000000000
       145    1       27.106500000000       6.444095029560       4.536875000000
       146    1       25.512000000000       9.205850042229       4.536875000000
       147    2       27.106500000000       6.444095029560       2.592500000000
       148    2       25.512000000000       9.205850042229       2.592500000000
       149    1       25.512000000000       7.364680033783       1.944375000000
       150    1       27.106500000000      10.126435046451       1.944375000000
       151    2       25.512000000000       7.364680033783       0.000000000000
       152    2       27.106500000000      10.126435046451       0.000000000000
       153    1       30.295500000000       6.444095029560       4.536875000000
       154    1       28.701000000000       9.205850042229       4.536875000000
       155    2       30.295500000000       6.444095029560       2.592500000000
       156    2       28.701000000000       9.205850042229       2.592500000000
       157    1       28.701000000000       7.364680033783       1.944375000000
       158    1       30.295500000000      10.126435046451       1.944375000000
       159    2       28.701000000000       7.364680033783       0.000000000000
       160    2       30.295500000000      10.126435046451       0.000000000000
       161    1        1.594500000000      11.967605054897       4.536875000000
       162    1        0.000000000000      14.729360067566       4.536875000000
       163    2        1.594500000000      11.967605054897       2.592500000000
       164    2        0.000000000000      14.729360067566       2.592500000000
       165    1        0.000000000000      12.888190059120       1.944375000000
       166    1        1.594500000000      15.649945071789       1.944375000000
       167    2        0.000000000000      12.888190059120       0.000000000000
       168    2        1.594500000000      15.649945071789       0.000000000000
       169    1        4.783500000000      11.967605054897       4.536875000000
       170    1        3.189000000000      14.729360067566       4.536875000000
       171    2        4.783500000000      11.967605054897       2.592500000000
       172    2        3.189000000000      14.729360067566       2.592500000000
       173    1        3.189000000000      12.888190059120       1.944375000000
       174    1        4.783500000000      15.649945071789       1.944375000000
       175    2        3.189000000000      12.888190059120       0.000000000000
       176    2        4.783500000000      15.649945071789       0.000000000000
       177    1        7.972500000000      11.967605054897       4.536875000000
       178    1        6.378000000000      14.729360067566       4.536875000000
       179    2        7.972500000000      11.967605054897       2.592500000000
       180    2        6.378000000000      14.729360067566       2.592500000000
       181    1        6.378000000000      12.888190059120       1.944375000000
       182    1        7.972500000000      15.649945071789       1.944375000000
       183    2        6.378000000000      12.888190059120       0.000000000000
       184    2        7.972500000000      15.649945071789       0.000000000000
       185    1       11.161500000000      11.967605054897       4.536875000000
       186    1        9.567000000000      14.729360067566       4.536875000000
       187    2       11.161500000000      11.967605054897       2.592500000000
       188    2        9.567000000000      14.729360067566       2.592500000000
       189    1        9.567000000000      12.888190059120       1.944375000000
       190    1       11.161500000000      15.649945071789       1.944375000000
       191    2        9.567000000000      12.888190059120       0.000000000000
       192    2       11.161500000000      15.649945071789       0.000000000000
       193    1       14.350500000000      11.967605054897       4.536875000000
       194    1       12.756000000000      14.729360067566       4.536875000000
       195    2       14.350500000000      11.967605054897       2.592500000000
       196    2       12.756000000000      14.729360067566       2.592500000000
       197    1       12.756000000000      12.888190059120       1.944375000000
       198    1       14.350500000000      15.649945071789       1.944375000000
       199    2       12.756000000000      12.888190059120       0.000000000000
       200    2       14.350500000000      15.649945071789       0.000000000000
       201    1       17.539500000000      11.967605054897       4.536875000000
       202    1       15.945000000000      14.729360067566       4.536875000000
       203    2       17.539500000000      11.967605054897       2.592500000000
       204    2       15.945000000000      14.729360067566       2.592500000000
       205    1       15.945000000000      12.888190059120       1.944375000000
       206    1       17.539500000000      15.649945071789       1.944375000000
       207    2       15.945000000000      12.888190059120       0.000000000000
       208    2       17.539500000000      15.649945071789       0.000000000000
       209    1       20.728500000000      11.967605054897       4.536875000000
       210    1       19.134000000000      14.729360067566       4.536875000000
       211    2       20.728500000000      11.967605054897       2.592500000000
       212    2       19.134000000000      14.729360067566       2.592500000000
       213    1       19.134000000000      12.888190059120       1.944375000000
       214    1       20.728500000000      15.649945071789       1.944375000000
       215    2       19.134000000000      12.888190059120       0.000000000000
       216    2       20.728500000000      15.649945071789       0.000000000000
       217    1       23.917500000000      11.967605054897       4.536875000000
       218    1       22.323000000000      14.729360067566       4.536875000000
       219    2       23.917500000000      11.967605054897       2.592500000000
       220    2       22.323000000000      14.729360067566       2.592500000000
       221    1       22.323000000000      12.888190059120       1.944375000000
       222    1       23.917500000000      15.649945071789       1.944375000000
       223    2       22.323000000000      12.888190059120       0.000000000000
       224    2       23.917500000000      15.649945071789       0.000000000000
       225    1       27.106500000000      11.967605054897       4.536875000000
       226    1       25.512000000000      14.729360067566       4.536875000000
       227    2       27.106500000000      11.967605054897       2.592500000000
       228    2       25.512000000000      14.729360067566       2.592500000000
       229    1       25.512000000000      12.888190059120       1.944375000000
       230    1       27.106500000000      15.649945071789       1.944375000000
       231    2       25.512000000000      12.888190059120       0.000000000000
       232    2       27.106500000000      15.649945071789       0.000000000000
       233    1       30.295500000000      11.967605054897       4.536875000000
       234    1       28.701000000000      14.729360067566       4.536875000000
       235    2       30.295500000000      11.967605054897       2.592500000000
       236    2       28.701000000000      14.729360067566       2.592500000000
       237    1       28.701000000000      12.888190059120       1.944375000000
       238    1       30.295500000000      15.649945071789       1.944375000000
       239    2       28.701000000000      12.888190059120       0.000000000000
       240    2       30.295500000000      15.649945071789       0.000000000000
       241    1        1.594500000000      17.491115080234       4.536875000000
       242    1        0.000000000000      20.252870092903       4.536875000000
       243    2        1.594500000000      17.491115080234       2.592500000000
       244    2        0.000000000000      20.252870092903       2.592500000000
       245    1        0.000000000000      18.411700084457       1.944375000000
       246    1        1.594500000000      21.173455097126       1.944375000000
       247    2        0.000000000000      18.411700084457       0.000000000000
       248    2        1.594500000000      21.173455097126       0.000000000000
       249    1        4.783500000000      17.491115080234       4.536875000000
       250    1        3.189000000000      20.252870092903       4.536875000000
       251    2        4.783500000000      17.491115080234       2.592500000000
       252    2        3.189000000000      20.252870092903       2.592500000000
       253    1        3.189000000000      18.411700084457       1.944375000000
       254    1        4.783500000000      21.173455097126       1.944375000000
       255    2        3.189000000000      18.411700084457       0.000000000000
       256    2        4.783500000000      21.173455097126       0.000000000000
       257    1        7.972500000000      17.491115080234       4.536875000000
       258    1        6.378000000000      20.252870092903       4.536875000000
       259    2        7.972500000000      17.491115080234       2.592500000000
       260    2        6.378000000000      20.252870092903       2.592500000000
       261    1        6.378000000000      18.411700084457       1.944375000000
       262    1        7.972500000000      21.173455097126       1.944375000000
       263    2        6.378000000000      18.411700084457       0.000000000000
       264    2        7.972500000000      21.173455097126       0.000000000000
       265    1       11.161500000000      17.491115080234       4.536875000000
       266    1        9.567000000000      20.252870092903       4.536875000000
       267    2       11.161500000000      17.491115080234       2.592500000000
       268    2        9.567000000000      20.252870092903       2.592500000000
       269    1        9.567000000000      18.411700084457       1.944375000000
       270    1       11.161500000000      21.173455097126       1.944375000000
       271    2        9.567000000000      18.411700084457       0.000000000000
       272    2       11.161500000000      21.173455097126       0.000000000000
       273    1       14.350500000000      17.491115080234       4.536875000000
       274    1       12.756000000000      20.252870092903       4.536875000000
       275    2       14.350500000000      17.491115080234       2.592500000000
       276    2       12.756000000000      20.252870092903       2.592500000000
       277    1       12.756000000000      18.411700084457       1.944375000000
       278    1       14.350500000000      21.173455097126       1.944375000000
       279    2       12.756000000000      18.411700084457       0.000000000000
       280    2       14.350500000000      21.173455097126       0.000000000000
       281    1       17.539500000000      17.491115080234       4.536875000000
       282    1       15.945000000000      20.252870092903       4.536875000000
       283    2       17.539500000000      17.491115080234       2.592500000000
       284    2       15.945000000000      20.252870092903       2.592500000000
       285    1       15.945000000000      18.411700084457       1.944375000000
       286    1       17.539500000000      21.173455097126       1.944375000000
       287    2       15.945000000000      18.411700084457       0.000000000000
       288    2       17.539500000000      21.173455097126       0.000000000000
       289    1       20.728500000000      17.491115080234       4.536875000000
       290    1       19.134000000000      20.252870092903       4.536875000000
       291    2       20.728500000000      17.491115080234       2.592500000000
       292    2       19.134000000000      20.252870092903       2.592500000000
       293    1       19.134000000000      18.411700084457       1.944375000000
       294    1       20.728500000000      21.173455097126       1.944375000000
       295    2       19.134000000000      18.411700084457       0.000000000000
       296    2       20.728500000000      21.173455097126       0.000000000000
       297    1       23.917500000000      17.491115080234       4.536875000000
       298    1       22.323000000000      20.252870092903       4.536875000000
       299    2       23.917500000000      17.491115080234       2.592500000000
       300    2       22.323000000000      20.252870092903       2.592500000000
       301    1       22.323000000000      18.411700084457       1.944375000000
       302    1       23.917500000000      21.173455097126       1.944375000000
       303    2       22.323000000000      18.411700084457       0.000000000000
       304    2       23.917500000000      21.173455097126       0.000000000000
       305    1       27.106500000000      17.491115080234       4.536875000000
       306    1       25.512000000000      20.252870092903       4.536875000000
       307    2       27.106500000000      17.491115080234       2.592500000000
       308    2       25.512000000000      20.252870092903       2.592500000000
       309    1       25.512000000000      18.411700084457       1.944375000000
       310    1       27.106500000000      21.173455097126       1.944375000000
       311    2       25.512000000000      18.411700084457       0.000000000000
       312    2       27.106500000000      21.173455097126       0.000000000000
       313    1       30.295500000000      17.491115080234       4.536875000000
       314    1       28.701000000000      20.252870092903       4.536875000000
       315    2       30.295500000000      17.491115080234       2.592500000000
       316    2       28.701000000000      20.252870092903       2.592500000000
       317    1       28.701000000000      18.411700084457       1.944375000000
       318    1       30.295500000000      21.173455097126       1.944375000000
       319    2       28.701000000000      18.411700084457       0.000000000000
       320    2       30.295500000000      21.173455097126       0.000000000000
       321    1        1.594500000000      23.014625105571       4.536875000000
       322    1        0.000000000000      25.776380118240       4.536875000000
       323    2        1.594500000000      23.014625105571       2.592500000000
       324    2        0.000000000000      25.776380118240       2.592500000000
       325    1        0.000000000000      23.935210109794       1.944375000000
       326    1        1.594500000000      26.696965122463       1.944375000000
       327    2        0.000000000000      23.935210109794       0.000000000000
       328    2        1.594500000000      26.696965122463       0.000000000000
       329    1        4.783500000000      23.014625105571       4.536875000000
       330    1        3.189000000000      25.776380118240       4.536875000000
       331    2        4.783500000000      23.014625105571       2.592500000000
       332    2        3.189000000000      25.776380118240       2.592500000000
       333    1        3.189000000000      23.935210109794       1.944375000000
       334    1        4.783500000000      26.696965122463       1.944375000000
       335    2        3.189000000000      23.935210109794       0.000000000000
       336    2        4.783500000000      26.696965122463       0.000000000000
       337    1        7.972500000000      23.014625105571       4.536875000000
       338    1        6.378000000000      25.776380118240       4.536875000000
       339    2        7.972500000000      23.014625105571       2.592500000000
       340    2        6.378000000000      25.776380118240       2.592500000000
       341    1        6.378000000000      23.935210109794       1.944375000000
       342    1        7.972500000000      26.696965122463       1.944375000000
       343    2        6.378000000000      23.935210109794       0.000000000000
       344    2        7.972500000000      26.696965122463       0.000000000000
       345    1       11.161500000000      23.014625105571       4.536875000000
       346    1        9.567000000000      25.776380118240       4.536875000000
       347    2       11.161500000000      23.014625105571       2.592500000000
       348    2        9.567000000000      25.776380118240       2.592500000000
       349    1        9.567000000000      23.935210109794       1.944375000000
       350    1       11.161500000000      26.696965122463       1.944375000000
       351    2        9.567000000000      23.935210109794       0.000000000000
       352    2       11.161500000000      26.696965122463       0.000000000000
       353    1       14.350500000000      23.014625105571       4.536875000000
       354    1       12.756000000000      25.776380118240       4.536875000000
       355    2       14.350500000000      23.014625105571       2.592500000000
       356    2       12.756000000000      25.776380118240       2.592500000000
       357    1       12.756000000000      23.935210109794       1.944375000000
       358    1       14.350500000000      26.696965122463       1.944375000000
       359    2       12.756000000000      23.935210109794       0.000000000000
       360    2       14.350500000000      26.696965122463       0.000000000000
       361    1       17.539500000000      23.014625105571       4.536875000000
       362    1       15.945000000000      25.776380118240       4.536875000000
       363    2       17.539500000000      23.014625105571       2.592500000000
       364    2       15.945000000000      25.776380118240       2.592500000000
       365    1       15.945000000000      23.935210109794       1.944375000000
       366    1       17.539500000000      26.696965122463       1.944375000000
       367    2       15.945000000000      23.935210109794       0.000000000000
       368    2       17.539500000000      26.696965122463       0.000000000000
       369    1       20.728500000000      23.014625105571       4.536875000000
       370    1       19.134000000000      25.776380118240       4.536875000000
       371    2       20.728500000000      23.014625105571       2.592500000000
       372    2       19.134000000000      25.776380118240       2.592500000000
       373    1       19.134000000000      23.935210109794       1.944375000000
       374    1       20.728500000000      26.696965122463       1.944375000000
       375    2       19.134000000000      23.935210109794       0.000000000000
       376    2       20.728500000000      26.696965122463       0.000000000000
       377    1       23.917500000000      23.014625105571       4.536875000000
       378    1       22.323000000000      25.776380118240       4.536875000000
       379    2       23.917500000000      23.014625105571       2.592500000000
       380    2       22.323000000000      25.776380118240       2.592500000000
       381    1       22.323000000000      23.935210109794       1.944375000000
       382    1       23.917500000000      26.696965122463       1.944375000000
       383    2       22.323000000000      23.935210109794       0.000000000000
       384    2       23.917500000000      26.696965122463       0.000000000000
       385    1       27.106500000000      23.014625105571       4.536875000000
       386    1       25.512000000000      25.776380118240       4.536875000000
       387    2       27.106500000000      23.014625105571       2.592500000000
       388    2       25.512000000000      25.776380118240       2.592500000000
       389    1       25.512000000000      23.935210109794       1.944375000000
       390    1       27.106500000000      26.696965122463       1.944375000000
       391    2       25.512000000000      23.935210109794       0.000000000000
       392    2       27.106500000000      26.696965122463       0.000000000000
       393    1       30.295500000000      23.014625105571       4.536875000000
       394    1       28.701000000000      25.776380118240       4.536875000000
       395    2       30.295500000000      23.014625105571       2.592500000000
       396    2       28.701000000000      25.776380118240       2.592500000000
       397    1       28.701000000000      23.935210109794       1.944375000000
       398    1       30.295500000000      26.696965122463       1.944375000000
       399    2       28.701000000000      23.935210109794       0.000000000000
       400    2       30.295500000000      26.696965122463       0.000000000000
       401    1        1.594500000000      28.538135130909       4.536875000000
       402    1        0.000000000000      31.299890143577       4.536875000000
       403    2        1.594500000000      28.538135130909       2.592500000000
       404    2        0.000000000000      31.299890143577       2.592500000000
       405    1        0.000000000000      29.458720135131       1.944375000000
       406    1        1.594500000000      32.220475147800       1.944375000000
       407    2        0.000000000000      29.458720135131       0.000000000000
       408    2        1.594500000000      32.220475147800       0.000000000000
       409    1        4.783500000000      28.538135130909       4.536875000000
       410    1        3.189000000000      31.299890143577       4.536875000000
       411    2        4.783500000000      28.538135130909       2.592500000000
       412    2        3.189000000000      31.299890143577       2.592500000000
       413    1        3.189000000000      29.458720135131       1.944375000000
       414    1        4.783500000000      32.220475147800       1.944375000000
       415    2        3.189000000000      29.458720135131       0.000000000000
       416    2        4.783500000000      32.220475147800       0.000000000000
       417    1        7.972500000000      28.538135130909       4.536875000000
       418    1        6.378000000000      31.299890143577       4.536875000000
       419    2        7.972500000000      28.538135130909       2.592500000000
       420    2        6.378000000000      31.299890143577       2.592500000000
       421    1        6.378000000000      29.458720135131       1.944375000000
       422    1        7.972500000000      32.220475147800       1.944375000000
       423    2        6.378000000000      29.458720135131       0.000000000000
       424    2        7.972500000000      32.220475147800       0.000000000000
       425    1       11.161500000000      28.538135130909       4.536875000000
       426    1        9.567000000000      31.299890143577       4.536875000000
       427    2       11.161500000000      28.538135130909       2.592500000000
       428    2        9.567000000000      31.299890143577       2.592500000000
       429    1        9.567000000000      29.458720135131       1.944375000000
       430    1       11.161500000000      32.220475147800       1.944375000000
       431    2        9.567000000000      29.458720135131       0.000000000000
       432    2       11.161500000000      32.220475147800       0.000000000000
       433    1       14.350500000000      28.538135130909       4.536875000000
       434    1       12.756000000000      31.299890143577       4.536875000000
       435    2       14.350500000000      28.538135130909       2.592500000000
       436    2       12.756000000000      31.299890143577       2.592500000000
       437    1       12.756000000000      29.458720135131       1.944375000000
       438    1       14.350500000000      32.220475147800       1.944375000000
       439    2       12.756000000000      29.458720135131       0.000000000000
       440    2       14.350500000000      32.220475147800       0.000000000000
       441    1       17.539500000000      28.538135130909       4.536875000000
       442    1       15.945000000000      31.299890143577       4.536875000000
       443    2       17.539500000000      28.538135130909       2.592500000000
       444    2       15.945000000000      31.299890143577       2.592500000000
       445    1       15.945000000000      29.458720135131       1.944375000000
       446    1       17.539500000000      32.220475147800       1.944375000000
       447    2       15.945000000000      29.458720135131       0.000000000000
       448    2       17.539500000000      32.220475147800       0.000000000000
       449    1       20.728500000000      28.538135130909       4.536875000000
       450    1       19.134000000000      31.299890143577       4.536875000000
       451    2       20.728500000000      28.538135130909       2.592500000000
       452    2       19.134000000000      31.299890143577       2.592500000000
       453    1       19.134000000000      29.458720135131       1.944375000000
       454    1       20.728500000000      32.220475147800       1.944375000000
       455    2       19.134000000000      29.458720135131       0.000000000000
       456    2       20.728500000000      32.220475147800       0.000000000000
       457    1       23.917500000000      28.538135130909       4.536875000000
       458    1       22.323000000000      31.299890143577       4.536875000000
       459    2       23.917500000000      28.538135130909       2.592500000000
       460    2       22.323000000000      31.299890143577       2.592500000000
       461    1       22.323000000000      29.458720135131       1.944375000000
       462    1       23.917500000000      32.220475147800       1.944375000000
       463    2       22.323000000000      29.458720135131       0.000000000000
       464    2       23.917500000000      32.220475147800       0.000000000000
       465    1       27.106500000000      28.538135130909       4.536875000000
       466    1       25.512000000000      31.299890143577       4.536875000000
       467    2       27.106500000000      28.538135130909       2.592500000000
       468    2       25.512000000000      31.299890143577       2.592500000000
       469    1       25.512000000000      29.458720135131       1.944375000000
       470    1       27.106500000000      32.220475147800       1.944375000000
       471    2       25.512000000000      29.458720135131       0.000000000000
       472    2       27.106500000000      32.220475147800       0.000000000000
       473    1       30.295500000000      28.538135130909       4.536875000000
       474    1       28.701000000000      31.299890143577       4.536875000000
       475    2       30.295500000000      28.538135130909       2.592500000000
       476    2       28.701000000000      31.299890143577       2.592500000000
       477    1       28.701000000000      29.458720135131       1.944375000000
       478    1       30.295500000000      32.220475147800       1.944375000000
       479    2       28.701000000000      29.458720135131       0.000000000000
       480    2       30.295500000000      32.220475147800       0.000000000000
       481    1        1.594500000000      34.061645156246       4.536875000000
       482    1        0.000000000000      36.823400168914       4.536875000000
       483    2        1.594500000000      34.061645156246       2.592500000000
       484    2        0.000000000000      36.823400168914       2.592500000000
       485    1        0.000000000000      34.982230160469       1.944375000000
       486    1        1.594500000000      37.743985173137       1.944375000000
       487    2        0.000000000000      34.982230160469       0.000000000000
       488    2        1.594500000000      37.743985173137       0.000000000000
       489    1        4.783500000000      34.061645156246       4.536875000000
       490    1        3.189000000000      36.823400168914       4.536875000000
       491    2        4.783500000000      34.061645156246       2.592500000000
       492    2        3.189000000000      36.823400168914       2.592500000000
       493    1        3.189000000000      34.982230160469       1.944375000000
       494    1        4.783500000000      37.743985173137       1.944375000000
       495    2        3.189000000000      34.982230160469       0.000000000000
       496    2        4.783500000000      37.743985173137       0.000000000000
       497    1        7.972500000000      34.061645156246       4.536875000000
       498    1        6.378000000000      36.823400168914       4.536875000000
       499    2        7.972500000000      34.061645156246       2.592500000000
       500    2        6.378000000000      36.823400168914       2.592500000000
       501    1        6.378000000000      34.982230160469       1.944375000000
       502    1        7.972500000000      37.743985173137       1.944375000000
       503    2        6.378000000000      34.982230160469       0.000000000000
       504    2        7.972500000000      37.743985173137       0.000000000000
       505    1       11.161500000000      34.061645156246       4.536875000000
       506    1        9.567000000000      36.823400168914       4.536875000000
       507    2       11.161500000000      34.061645156246       2.592500000000
       508    2        9.567000000000      36.823400168914       2.592500000000
       509    1        9.567000000000      34.982230160469       1.944375000000
       510    1       11.161500000000      37.743985173137       1.944375000000
       511    2        9.567000000000      34.982230160469       0.000000000000
       512    2       11.161500000000      37.743985173137       0.000000000000
       513    1       14.350500000000      34.061645156246       4.536875000000
       514    1       12.756000000000      36.823400168914       4.536875000000
       515    2       14.350500000000      34.061645156246       2.592500000000
       516    2       12.756000000000      36.823400168914       2.592500000000
       517    1       12.756000000000      34.982230160469       1.944375000000
       518    1       14.350500000000      37.743985173137       1.944375000000
       519    2       12.756000000000      34.982230160469       0.000000000000
       520    2       14.350500000000      37.743985173137       0.000000000000
       521    1       17.539500000000      34.061645156246       4.536875000000
       522    1       15.945000000000      36.823400168914       4.536875000000
       523    2       17.539500000000      34.061645156246       2.592500000000
       524    2       15.945000000000      36.823400168914       2.592500000000
       525    1       15.945000000000      34.982230160469       1.944375000000
       526    1       17.539500000000      37.743985173137       1.944375000000
       527    2       15.945000000000      34.982230160469       0.000000000000
       528    2       17.539500000000      37.743985173137       0.000000000000
       529    1       20.728500000000      34.061645156246       4.536875000000
       530    1       19.134000000000      36.823400168914       4.536875000000
       531    2       20.728500000000      34.061645156246       2.592500000000
       532    2       19.134000000000      36.823400168914       2.592500000000
       533    1       19.134000000000      34.982230160469       1.944375000000
       534    1       20.728500000000      37.743985173137       1.944375000000
       535    2       19.134000000000      34.982230160469       0.000000000000
       536    2       20.728500000000      37.743985173137       0.000000000000
       537    1       23.917500000000      34.061645156246       4.536875000000
       538    1       22.323000000000      36.823400168914       4.536875000000
       539    2       23.917500000000      34.061645156246       2.592500000000
       540    2       22.323000000000      36.823400168914       2.592500000000
       541    1       22.323000000000      34.982230160469       1.944375000000
       542    1       23.917500000000      37.743985173137       1.944375000000
       543    2       22.323000000000      34.982230160469       0.000000000000
       544    2       23.917500000000      37.743985173137       0.000000000000
       545    1       27.106500000000      34.061645156246       4.536875000000
       546    1       25.512000000000      36.823400168914       4.536875000000
       547    2       27.106500000000      34.061645156246       2.592500000000
       548    2       25.512000000000      36.823400168914       2.592500000000
       549    1       25.512000000000      34.982230160469       1.944375000000
       550    1       27.106500000000      37.743985173137       1.944375000000
       551    2       25.512000000000      34.982230160469       0.000000000000
       552    2       27.106500000000      37.743985173137       0.000000000000
       553    1       30.295500000000      34.061645156246       4.536875000000
       554    1       28.701000000000      36.823400168914       4.536875000000
       555    2       30.295500000000      34.061645156246       2.592500000000
       556    2       28.701000000000      36.823400168914       2.592500000000
       557    1       28.701000000000      34.982230160469       1.944375000000
       558    1       30.295500000000      37.743985173137       1.944375000000
       559    2       28.701000000000      34.982230160469       0.000000000000
       560    2       30.295500000000      37.743985173137       0.000000000000
       561    1        1.594500000000      39.585155181583       4.536875000000
       562    1        0.000000000000      42.346910194251       4.536875000000
       563    2        1.594500000000      39.585155181583       2.592500000000
       564    2        0.000000000000      42.346910194251       2.592500000000
       565    1        0.000000000000      40.505740185806       1.944375000000
       566    1        1.594500000000      43.267495198474       1.944375000000
       567    2        0.000000000000      40.505740185806       0.000000000000
       568    2        1.594500000000      43.267495198474       0.000000000000
       569    1        4.783500000000      39.585155181583       4.536875000000
       570    1        3.189000000000      42.346910194251       4.536875000000
       571    2        4.783500000000      39.585155181583       2.592500000000
       572    2        3.189000000000      42.346910194251       2.592500000000
       573    1        3.189000000000      40.505740185806       1.944375000000
       574    1        4.783500000000      43.267495198474       1.944375000000
       575    2        3.189000000000      40.505740185806       0.000000000000
       576    2        4.783500000000      43.267495198474       0.000000000000
       577    1        7.972500000000      39.585155181583       4.536875000000
       578    1        6.378000000000      42.346910194251       4.536875000000
       579    2        7.972500000000      39.585155181583       2.592500000000
       580    2        6.378000000000      42.346910194251       2.592500000000
       581    1        6.378000000000      40.505740185806       1.944375000000
       582    1        7.972500000000      43.267495198474       1.944375000000
       583    2        6.378000000000      40.505740185806       0.000000000000
       584    2        7.972500000000      43.267495198474       0.000000000000
       585    1       11.161500000000      39.585155181583       4.536875000000
       586    1        9.567000000000      42.346910194251       4.536875000000
       587    2       11.161500000000      39.585155181583       2.592500000000
       588    2        9.567000000000      42.346910194251       2.592500000000
       589    1        9.567000000000      40.505740185806       1.944375000000
       590    1       11.161500000000      43.267495198474       1.944375000000
       591    2        9.567000000000      40.505740185806       0.000000000000
       592    2       11.161500000000      43.267495198474       0.000000000000
       593    1       14.350500000000      39.585155181583       4.536875000000
       594    1       12.756000000000      42.346910194251       4.536875000000
       595    2       14.350500000000      39.585155181583       2.592500000000
       596    2       12.756000000000      42.346910194251       2.592500000000
       597    1       12.756000000000      40.505740185806       1.944375000000
       598    1       14.350500000000      43.267495198474       1.944375000000
       599    2       12.756000000000      40.505740185806       0.000000000000
       600    2       14.350500000000      43.267495198474       0.000000000000
       601    1       17.539500000000      39.585155181583       4.536875000000
       602    1       15.945000000000      42.346910194251       4.536875000000
       603    2       17.539500000000      39.585155181583       2.592500000000
       604    2       15.945000000000      42.346910194251       2.592500000000
       605    1       15.945000000000      40.505740185806       1.944375000000
       606    1       17.539500000000      43.267495198474       1.944375000000
       607    2       15.945000000000      40.505740185806       0.000000000000
       608    2       17.539500000000      43.267495198474       0.000000000000
       609    1       20.728500000000      39.585155181583       4.536875000000
       610    1       19.134000000000      42.346910194251       4.536875000000
       611    2       20.728500000000      39.585155181583       2.592500000000
       612    2       19.134000000000      42.346910194251       2.592500000000
       613    1       19.134000000000      40.505740185806       1.944375000000
       614    1       20.728500000000      43.267495198474       1.944375000000
       615    2       19.134000000000      40.505740185806       0.000000000000
       616    2       20.728500000000      43.267495198474       0.000000000000
       617    1       23.917500000000      39.585155181583       4.536875000000
       618    1       22.323000000000      42.346910194251       4.536875000000
       619    2       23.917500000000      39.585155181583       2.592500000000
       620    2       22.323000000000      42.346910194251       2.592500000000
       621    1       22.323000000000      40.505740185806       1.944375000000
       622    1       23.917500000000      43.267495198474       1.944375000000
       623    2       22.323000000000      40.505740185806       0.000000000000
       624    2       23.917500000000      43.267495198474       0.000000000000
       625    1       27.106500000000      39.585155181583       4.536875000000
       626    1       25.512000000000      42.346910194251       4.536875000000
       627    2       27.106500000000      39.585155181583       2.592500000000
       628    2       25.512000000000      42.346910194251       2.592500000000
       629    1       25.512000000000      40.505740185806       1.944375000000
       630    1       27.106500000000      43.267495198474       1.944375000000
       631    2       25.512000000000      40.505740185806       0.000000000000
       632    2       27.106500000000      43.267495198474       0.000000000000
       633    1       30.295500000000      39.585155181583       4.536875000000
       634    1       28.701000000000      42.346910194251       4.536875000000
       635    2       30.295500000000      39.585155181583       2.592500000000
       636    2       28.701000000000      42.346910194251       2.592500000000
       637    1       28.701000000000      40.505740185806       1.944375000000
       638    1       30.295500000000      43.267495198474       1.944375000000
       639    2       28.701000000000      40.505740185806       0.000000000000
       640    2       30.295500000000      43.267495198474       0.000000000000
       641    1        1.594500000000      45.108665206920       4.536875000000
       642    1        0.000000000000      47.870420219589       4.536875000000
       643    2        1.594500000000      45.108665206920       2.592500000000
       644    2        0.000000000000      47.870420219589       2.592500000000
       645    1        0.000000000000      46.029250211143       1.944375000000
       646    1        1.594500000000      48.791005223811       1.944375000000
       647    2        0.000000000000      46.029250211143       0.000000000000
       648    2        1.594500000000      48.791005223811       0.000000000000
       649    1        4.783500000000      45.108665206920       4.536875000000
       650    1        3.189000000000      47.870420219589       4.536875000000
       651    2        4.783500000000      45.108665206920       2.592500000000
       652    2        3.189000000000      47.870420219589       2.592500000000
       653    1        3.189000000000      46.029250211143       1.944375000000
       654    1        4.783500000000      48.791005223811       1.944375000000
       655    2        3.189000000000      46.029250211143       0.000000000000
       656    2        4.783500000000      48.791005223811       0.000000000000
       657    1        7.972500000000      45.108665206920       4.536875000000
       658    1        6.378000000000      47.870420219589       4.536875000000
       659    2        7.972500000000      45.108665206920       2.592500000000
       660    2        6.378000000000      47.870420219589       2.592500000000
       661    1        6.378000000000      46.029250211143       1.944375000000
       662    1        7.972500000000      48.791005223811       1.944375000000
       663    2        6.378000000000      46.029250211143       0.000000000000
       664    2        7.972500000000      48.791005223811       0.000000000000
       665    1       11.161500000000      45.108665206920       4.536875000000
       666    1        9.567000000000      47.870420219589       4.536875000000
       667    2       11.161500000000      45.108665206920       2.592500000000
       668    2        9.567000000000      47.870420219589       2.592500000000
       669    1        9.567000000000      46.029250211143       1.944375000000
       670    1       11.161500000000      48.791005223811       1.944375000000
       671    2        9.567000000000      46.029250211143       0.000000000000
       672    2       11.161500000000      48.791005223811       0.000000000000
       673    1       14.350500000000      45.108665206920       4.536875000000
       674    1       12.756000000000      47.870420219589       4.536875000000
       675    2       14.350500000000      45.108665206920       2.592500000000
       676    2       12.756000000000      47.870420219589       2.592500000000
       677    1       12.756000000000      46.029250211143       1.944375000000
       678    1       14.350500000000      48.791005223811       1.944375000000
       679    2       12.756000000000      46.029250211143       0.000000000000
       680    2       14.350500000000      48.791005223811       0.000000000000
       681    1       17.539500000000      45.108665206920       4.536875000000
       682    1       15.945000000000      47.870420219589       4.536875000000
       683    2       17.539500000000      45.108665206920       2.592500000000
       684    2       15.945000000000      47.870420219589       2.592500000000
       685    1       15.945000000000      46.029250211143       1.944375000000
       686    1       17.539500000000      48.791005223811       1.944375000000
       687    2       15.945000000000      46.029250211143       0.000000000000
       688    2       17.539500000000      48.791005223811       0.000000000000
       689    1       20.728500000000      45.108665206920       4.536875000000
       690    1       19.134000000000      47.870420219589       4.536875000000
       691    2       20.728500000000      45.108665206920       2.592500000000
       692    2       19.134000000000      47.870420219589       2.592500000000
       693    1       19.134000000000      46.029250211143       1.944375000000
       694    1       20.728500000000      48.791005223811       1.944375000000
       695    2       19.134000000000      46.029250211143       0.000000000000
       696    2       20.728500000000      48.791005223811       0.000000000000
       697    1       23.917500000000      45.108665206920       4.536875000000
       698    1       22.323000000000      47.870420219589       4.536875000000
       699    2       23.917500000000      45.108665206920       2.592500000000
       700    2       22.323000000000      47.870420219589       2.592500000000
       701    1       22.323000000000      46.029250211143       1.944375000000
       702    1       23.917500000000      48.791005223811       1.944375000000
       703    2       22.323000000000      46.029250211143       0.000000000000
       704    2       23.917500000000      48.791005223811       0.000000000000
       705    1       27.106500000000      45.108665206920       4.536875000000
       706    1       25.512000000000      47.870420219589       4.536875000000
       707    2       27.106500000000      45.108665206920       2.592500000000
       708    2       25.512000000000      47.870420219589       2.592500000000
       709    1       25.512000000000      46.029250211143       1.944375000000
       710    1       27.106500000000      48.791005223811       1.944375000000
       711    2       25.512000000000      46.029250211143       0.000000000000
       712    2       27.106500000000      48.791005223811       0.000000000000
       713    1       30.295500000000      45.108665206920       4.536875000000
       714    1       28.701000000000      47.870420219589       4.536875000000
       715    2       30.295500000000      45.108665206920       2.592500000000
       716    2       28.701000000000      47.870420219589       2.592500000000
       717    1       28.701000000000      46.029250211143       1.944375000000
       718    1       30.295500000000      48.791005223811       1.944375000000
       719    2       28.701000000000      46.029250211143       0.000000000000
       720    2       30.295500000000      48.791005223811       0.000000000000
       721    1        1.594500000000      50.632175232257       4.536875000000
       722    1        0.000000000000      53.393930244926       4.536875000000
       723    2        1.594500000000      50.632175232257       2.592500000000
       724    2        0.000000000000      53.393930244926       2.592500000000
       725    1        0.000000000000      51.552760236480       1.944375000000
       726    1        1.594500000000      54.314515249149       1.944375000000
       727    2        0.000000000000      51.552760236480       0.000000000000
       728    2        1.594500000000      54.314515249149       0.000000000000
       729    1        4.783500000000      50.632175232257       4.536875000000
       730    1        3.189000000000      53.393930244926       4.536875000000
       731    2        4.783500000000      50.632175232257       2.592500000000
       732    2        3.189000000000      53.393930244926       2.592500000000
       733    1        3.189000000000      51.552760236480       1.944375000000
       734    1        4.783500000000      54.314515249149       1.944375000000
       735    2        3.189000000000      51.552760236480       0.000000000000
       736    2        4.783500000000      54.314515249149       0.000000000000
       737    1        7.972500000000      50.632175232257       4.536875000000
       738    1        6.378000000000      53.393930244926       4.536875000000
       739    2        7.972500000000      50.632175232257       2.592500000000
       740    2        6.378000000000      53.393930244926       2.592500000000
       741    1        6.378000000000      51.552760236480       1.944375000000
       742    1        7.972500000000      54.314515249149       1.944375000000
       743    2        6.378000000000      51.552760236480       0.000000000000
       744    2        7.972500000000      54.314515249149       0.000000000000
       745    1       11.161500000000      50.632175232257       4.536875000000
       746    1        9.567000000000      53.393930244926       4.536875000000
       747    2       11.161500000000      50.632175232257       2.592500000000
       748    2        9.567000000000      53.393930244926       2.592500000000
       749    1        9.567000000000      51.552760236480       1.944375000000
       750    1       11.161500000000      54.314515249149       1.944375000000
       751    2        9.567000000000      51.552760236480       0.000000000000
       752    2       11.161500000000      54.314515249149       0.000000000000
       753    1       14.350500000000      50.632175232257       4.536875000000
       754    1       12.756000000000      53.393930244926       4.536875000000
       755    2       14.350500000000      50.632175232257       2.592500000000
       756    2       12.756000000000      53.393930244926       2.592500000000
       757    1       12.756000000000      51.552760236480       1.944375000000
       758    1       14.350500000000      54.314515249149       1.944375000000
       759    2       12.756000000000      51.552760236480       0.000000000000
       760    2       14.350500000000      54.314515249149       0.000000000000
       761    1       17.539500000000      50.632175232257       4.536875000000
       762    1       15.945000000000      53.393930244926       4.536875000000
       763    2       17.539500000000      50.632175232257       2.592500000000
       764    2       15.945000000000      53.393930244926       2.592500000000
       765    1       15.945000000000      51.552760236480       1.944375000000
       766    1       17.539500000000      54.314515249149       1.944375000000
       767    2       15.945000000000      51.552760236480       0.000000000000
       768    2       17.539500000000      54.314515249149       0.000000000000
       769    1       20.728500000000      50.632175232257       4.536875000000
       770    1       19.134000000000      53.393930244926       4.536875000000
       771    2       20.728500000000      50.632175232257       2.592500000000
       772    2       19.134000000000      53.393930244926       2.592500000000
       773    1       19.134000000000      51.552760236480       1.944375000000
       774    1       20.728500000000      54.314515249149       1.944375000000
       775    2       19.134000000000      51.552760236480       0.000000000000
       776    2       20.728500000000      54.314515249149       0.000000000000
       777    1       23.917500000000      50.632175232257       4.536875000000
       778    1       22.323000000000      53.393930244926       4.536875000000
       779    2       23.917500000000      50.632175232257       2.592500000000
       780    2       22.323000000000      53.393930244926       2.592500000000
       781    1       22.323000000000      51.552760236480       1.944375000000
       782    1       23.917500000000      54.314515249149       1.944375000000
       783    2       22.323000000000      51.552760236480       0.000000000000
       784    2       23.917500000000      54.314515249149       0.000000000000
       785    1       27.106500000000      50.632175232257       4.536875000000
       786    1       25.512000000000      53.393930244926       4.536875000000
       787    2       27.106500000000      50.632175232257       2.592500000000
       788    2       25.512000000000      53.393930244926       2.592500000000
       789    1       25.512000000000      51.552760236480       1.944375000000
       790    1       27.106500000000      54.314515249149       1.944375000000
       791    2       25.512000000000      51.552760236480       0.000000000000
       792    2       27.106500000000      54.314515249149       0.000000000000
       793    1       30.295500000000      50.632175232257       4.536875000000
       794    1       28.701000000000      53.393930244926       4.536875000000
       795    2       30.295500000000      50.632175232257       2.592500000000
       796    2       28.701000000000      53.393930244926       2.592500000000
       797    1       28.701000000000      51.552760236480       1.944375000000
       798    1       30.295500000000      54.314515249149       1.944375000000
       799    2       28.701000000000      51.552760236480       0.000000000000
       800    2       30.295500000000      54.314515249149       0.000000000000
       801    1        1.594500000000       0.920585004223       9.721875000000
       802    1        0.000000000000       3.682340016891       9.721875000000
       803    2        1.594500000000       0.920585004223       7.777500000000
       804    2        0.000000000000       3.682340016891       7.777500000000
       805    1        0.000000000000       1.841170008446       7.129375000000
       806    1        1.594500000000       4.602925021114       7.129375000000
       807    2        0.000000000000       1.841170008446       5.185000000000
       808    2        1.594500000000       4.602925021114       5.185000000000
       809    1        4.783500000000       0.920585004223       9.721875000000
       810    1        3.189000000000       3.682340016891       9.721875000000
       811    2        4.783500000000       0.920585004223       7.777500000000
       812    2        3.189000000000       3.682340016891       7.777500000000
       813    1        3.189000000000       1.841170008446       7.129375000000
       814    1        4.783500000000       4.602925021114       7.129375000000
       815    2        3.189000000000       1.841170008446       5.185000000000
       816    2        4.783500000000       4.602925021114       5.185000000000
       817    1        7.972500000000       0.920585004223       9.721875000000
       818    1        6.378000000000       3.682340016891       9.721875000000
       819    2        7.972500000000       0.920585004223       7.777500000000
       820    2        6.378000000000       3.682340016891       7.777500000000
       821    1        6.378000000000       1.841170008446       7.129375000000
       822    1        7.972500000000       4.602925021114       7.129375000000
       823    2        6.378000000000       1.841170008446       5.185000000000
       824    2        7.972500000000       4.602925021114       5.185000000000
       825    1       11.161500000000       0.920585004223       9.721875000000
       826    1        9.567000000000       3.682340016891       9.721875000000
       827    2       11.161500000000       0.920585004223       7.777500000000
       828    2        9.567000000000       3.682340016891       7.777500000000
       829    1        9.567000000000       1.841170008446       7.129375000000
       830    1       11.161500000000       4.602925021114       7.129375000000
       831    2        9.567000000000       1.841170008446       5.185000000000
       832    2       11.161500000000       4.602925021114       5.185000000000
       833    1       14.350500000000       0.920585004223       9.721875000000
       834    1       12.756000000000       3.682340016891       9.721875000000
       835    2       14.350500000000       0.920585004223       7.777500000000
       836    2       12.756000000000       3.682340016891       7.777500000000
       837    1       12.756000000000       1.841170008446       7.129375000000
       838    1       14.350500000000       4.602925021114       7.129375000000
       839    2       12.756000000000       1.841170008446       5.185000000000
       840    2       14.350500000000       4.602925021114       5.185000000000
       841    1       17.539500000000       0.920585004223       9.721875000000
       842    1       15.945000000000       3.682340016891       9.721875000000
       843    2       17.539500000000       0.920585004223       7.777500000000
       844    2       15.945000000000       3.682340016891       7.777500000000
       845    1       15.945000000000       1.841170008446       7.129375000000
       846    1       17.539500000000       4.602925021114       7.129375000000
       847    2       15.945000000000       1.841170008446       5.185000000000
       848    2       17.539500000000       4.602925021114       5.185000000000
       849    1       20.728500000000       0.920585004223       9.721875000000
       850    1       19.134000000000       3.682340016891       9.721875000000
       851    2       20.728500000000       0.920585004223       7.777500000000
       852    2       19.134000000000       3.682340016891       7.777500000000
       853    1       19.134000000000       1.841170008446       7.129375000000
       854    1       20.728500000000       4.602925021114       7.129375000000
       855    2       19.134000000000       1.841170008446       5.185000000000
       856    2       20.728500000000       4.602925021114       5.185000000000
       857    1       23.917500000000       0.920585004223       9.721875000000
       858    1       22.323000000000       3.682340016891       9.721875000000
       859    2       23.917500000000       0.920585004223       7.777500000000
       860    2       22.323000000000       3.682340016891       7.777500000000
       861    1       22.323000000000       1.841170008446       7.129375000000
       862    1       23.917500000000       4.602925021114       7.129375000000
       863    2       22.323000000000       1.841170008446       5.185000000000
       864    2       23.917500000000       4.602925021114       5.185000000000
       865    1       27.106500000000       0.920585004223       9.721875000000
       866    1       25.512000000000       3.682340016891       9.721875000000
       867    2       27.106500000000       0.920585004223       7.777500000000
       868    2       25.512000000000       3.682340016891       7.777500000000
       869    1       25.512000000000       1.841170008446       7.129375000000
       870    1       27.106500000000       4.602925021114       7.129375000000
       871    2       25.512000000000       1.841170008446       5.185000000000
       872    2       27.106500000000       4.602925021114       5.185000000000
       873    1       30.295500000000       0.920585004223       9.721875000000
       874    1       28.701000000000       3.682340016891       9.721875000000
       875    2       30.295500000000       0.920585004223       7.777500000000
       876    2       28.701000000000       3.682340016891       7.777500000000
       877    1       28.701000000000       1.841170008446       7.129375000000
       878    1       30.295500000000       4.602925021114       7.129375000000
       879    2       28.701000000000       1.841170008446       5.185000000000
       880    2       30.295500000000       4.602925021114       5.185000000000
       881    1        1.594500000000       6.444095029560       9.721875000000
       882    1        0.000000000000       9.205850042229       9.721875000000
       883    2        1.594500000000       6.444095029560       7.777500000000
       884    2        0.000000000000       9.205850042229       7.777500000000
       885    1        0.000000000000       7.364680033783       7.129375000000
       886    1        1.594500000000      10.126435046451       7.129375000000
       887    2        0.000000000000       7.364680033783       5.185000000000
       888    2        1.594500000000      10.126435046451       5.185000000000
       889    1        4.783500000000       6.444095029560       9.721875000000
       890    1        3.189000000000       9.205850042229       9.721875000000
       891    2        4.783500000000       6.444095029560       7.777500000000
       892    2        3.189000000000       9.205850042229       7.777500000000
       893    1        3.189000000000       7.364680033783       7.129375000000
       894    1        4.783500000000      10.126435046451       7.129375000000
       895    2        3.189000000000       7.364680033783       5.185000000000
       896    2        4.783500000000      10.126435046451       5.185000000000
       897    1        7.972500000000       6.444095029560       9.721875000000
       898    1        6.378000000000       9.205850042229       9.721875000000
       899    2        7.972500000000       6.444095029560       7.777500000000
       900    2        6.378000000000       9.205850042229       7.777500000000
       901    1        6.378000000000       7.364680033783       7.129375000000
       902    1        7.972500000000      10.126435046451       7.129375000000
       903    2        6.378000000000       7.364680033783       5.185000000000
       904    2        7.972500000000      10.126435046451       5.185000000000
       905    1       11.161500000000       6.444095029560       9.721875000000
       906    1        9.567000000000       9.205850042229       9.721875000000
       907    2       11.161500000000       6.444095029560       7.777500000000
       908    2        9.567000000000       9.205850042229       7.777500000000
       909    1        9.567000000000       7.364680033783       7.129375000000
       910    1       11.161500000000      10.126435046451       7.129375000000
       911    2        9.567000000000       7.364680033783       5.185000000000
       912    2       11.161500000000      10.126435046451       5.185000000000
       913    1       14.350500000000       6.444095029560       9.721875000000
       914    1       12.756000000000       9.205850042229       9.721875000000
       915    2       14.350500000000       6.444095029560       7.777500000000
       916    2       12.756000000000       9.205850042229       7.777500000000
       917    1       12.756000000000       7.364680033783       7.129375000000
       918    1       14.350500000000      10.126435046451       7.129375000000
       919    2       12.756000000000       7.364680033783       5.185000000000
       920    2       14.350500000000      10.126435046451       5.185000000000
       921    1       17.539500000000       6.444095029560       9.721875000000
       922    1       15.945000000000       9.205850042229       9.721875000000
       923    2       17.539500000000       6.444095029560       7.777500000000
       924    2       15.945000000000       9.205850042229       7.777500000000
       925    1       15.945000000000       7.364680033783       7.129375000000
       926    1       17.539500000000      10.126435046451       7.129375000000
       927    2       15.945000000000       7.364680033783       5.185000000000
       928    2       17.539500000000      10.126435046451       5.185000000000
       929    1       20.728500000000       6.444095029560       9.721875000000
       930    1       19.134000000000       9.205850042229       9.721875000000
       931    2       20.728500000000       6.444095029560       7.777500000000
       932    2       19.134000000000       9.205850042229       7.777500000000
       933    1       19.134000000000       7.364680033783       7.129375000000
       934    1       20.728500000000      10.126435046451       7.129375000000
       935    2       19.134000000000       7.364680033783       5.185000000000
       936    2       20.728500000000      10.126435046451       5.185000000000
       937    1       23.917500000000       6.444095029560       9.721875000000
       938    1       22.323000000000       9.205850042229       9.721875000000
       939    2       23.917500000000       6.444095029560       7.777500000000
       940    2       22.323000000000       9.205850042229       7.777500000000
       941    1       22.323000000000       7.364680033783       7.129375000000
       942    1       23.917500000000      10.126435046451       7.129375000000
       943    2       22.323000000000       7.364680033783       5.185000000000
       944    2       23.917500000000      10.126435046451       5.185000000000
       945    1       27.106500000000       6.444095029560       9.721875000000
       946    1       25.512000000000       9.205850042229       9.721875000000
       947    2       27.106500000000       6.444095029560       7.777500000000
       948    2       25.512000000000       9.205850042229       7.777500000000
       949    1       25.512000000000       7.364680033783       7.129375000000
       950    1       27.106500000000      10.126435046451       7.129375000000
       951    2       25.512000000000       7.364680033783       5.185000000000
       952    2       27.106500000000      10.126435046451       5.185000000000
       953    1       30.295500000000       6.444095029560       9.721875000000
       954    1       28.701000000000       9.205850042229       9.721875000000
       955    2       30.295500000000       6.444095029560       7.777500000000
       956    2       28.701000000000       9.205850042229       7.777500000000
       957    1       28.701000000000       7.364680033783       7.129375000000
       958    1       30.295500000000      10.126435046451       7.129375000000
       959    2       28.701000000000       7.364680033783       5.185000000000
       960    2       30.295500000000      10.126435046451       5.185000000000
       961    1        1.594500000000      11.967605054897       9.721875000000
       962    1        0.000000000000      14.729360067566       9.721875000000
       963    2        1.594500000000      11.967605054897       7.777500000000
       964    2        0.000000000000      14.729360067566       7.777500000000
       965    1        0.000000000000      12.888190059120       7.129375000000
       966    1        1.594500000000      15.649945071789       7.129375000000
       967    2        0.000000000000      12.888190059120       5.185000000000
       968    2        1.594500000000      15.649945071789       5.185000000000
       969    1        4.783500000000      11.967605054897       9.721875000000
       970    1        3.189000000000      14.729360067566       9.721875000000
       971    2        4.783500000000      11.967605054897       7.777500000000
       972    2        3.189000000000      14.729360067566       7.777500000000
       973    1        3.189000000000      12.888190059120       7.129375000000
       974    1        4.783500000000      15.649945071789       7.129375000000
       975    2        3.189000000000      12.888190059120       5.185000000000
       976    2        4.783500000000      15.649945071789       5.185000000000
       977    1        7.972500000000      11.967605054897       9.721875000000
       978    1        6.378000000000      14.729360067566       9.721875000000
       979    2        7.972500000000      11.967605054897       7.777500000000
       980    2        6.378000000000      14.729360067566       7.777500000000
       981    1        6.378000000000      12.888190059120       7.129375000000
       982    1        7.972500000000      15.649945071789       7.129375000000
       983    2        6.378000000000      12.888190059120       5.185000000000
       984    2        7.972500000000      15.649945071789       5.185000000000
       985    1       11.161500000000      11.967605054897       9.721875000000
       986    1        9.567000000000      14.729360067566       9.721875000000
       987    2       11.161500000000      11.967605054897       7.777500000000
       988    2        9.567000000000      14.729360067566       7.777500000000
       989    1        9.567000000000      12.888190059120       7.129375000000
       990    1       11.161500000000      15.649945071789       7.129375000000
       991    2        9.567000000000      12.888190059120       5.185000000000
       992    2       11.161500000000      15.649945071789       5.185000000000
       993    1       14.350500000000      11.967605054897       9.721875000000
       994    1       12.756000000000      14.729360067566       9.721875000000
       995    2       14.350500000000      11.967605054897       7.777500000000
       996    2       12.756000000000      14.729360067566       7.777500000000
       997    1       12.756000000000      12.888190059120       7.129375000000
       998    1       14.350500000000      15.649945071789       7.129375000000
       999    2       12.756000000000      12.888190059120       5.185000000000
      1000    2       14.350500000000      15.649945071789       5.185000000000
      1001    1       17.539500000000      11.967605054897       9.721875000000
      1002    1       15.945000000000      14.729360067566       9.721875000000
      1003    2       17.539500000000      11.967605054897       7.777500000000
      1004    2       15.945000000000      14.729360067566       7.777500000000
      1005    1       15.945000000000      12.888190059120       7.129375000000
      1006    1       17.539500000000      15.649945071789       7.129375000000
      1007    2       15.945000000000      12.888190059120       5.185000000000
      1008    2       17.539500000000      15.649945071789       5.185000000000
      1009    1       20.728500000000      11.967605054897       9.721875000000
      1010    1       19.134000000000      14.729360067566       9.721875000000
      1011    2       20.728500000000      11.967605054897       7.777500000000
      1012    2       19.134000000000      14.729360067566       7.777500000000
      1013    1       19.134000000000      12.888190059120       7.129375000000
      1014    1       20.728500000000      15.649945071789       7.129375000000
      1015    2       19.134000000000      12.888190059120       5.185000000000
      1016    2       20.728500000000      15.649945071789       5.185000000000
      1017    1       23.917500000000      11.967605054897       9.721875000000
      1018    1       22.323000000000      14.729360067566       9.721875000000
      1019    2       23.917500000000      11.967605054897       7.777500000000
      1020    2       22.323000000000      14.729360067566       7.777500000000
      1021    1       22.323000000000      12.888190059120       7.129375000000
      1022    1       23.917500000000      15.649945071789       7.129375000000
      1023    2       22.323000000000      12.888190059120       5.185000000000
      1024    2       23.917500000000      15.649945071789       5.185000000000
      1025    1       27.106500000000      11.967605054897       9.721875000000
      1026    1       25.512000000000      14.729360067566       9.721875000000
      1027    2       27.106500000000      11.967605054897       7.777500000000
      1028    2       25.512000000000      14.729360067566       7.777500000000
      1029    1       25.512000000000      12.888190059120       7.129375000000
      1030    1       27.106500000000      15.649945071789       7.129375000000
      1031    2       25.512000000000      12.888190059120       5.185000000000
      1032    2       27.106500000000      15.649945071789       5.185000000000
      1033    1       30.295500000000      11.967605054897       9.721875000000
      1034    1       28.701000000000      14.729360067566       9.721875000000
      1035    2       30.295500000000      11.967605054897       7.777500000000
      1036    2       28.701000000000      14.729360067566       7.777500000000
      1037    1       28.701000000000      12.888190059120       7.129375000000
      1038    1       30.295500000000      15.649945071789       7.129375000000
      1039    2       28.701000000000      12.888190059120       5.185000000000
      1040    2       30.295500000000      15.649945071789       5.185000000000
      1041    1        1.594500000000      17.491115080234       9.721875000000
      1042    1        0.000000000000      20.252870092903       9.721875000000
      1043    2        1.594500000000      17.491115080234       7.777500000000
      1044    2        0.000000000000      20.252870092903       7.777500000000
      1045    1        0.000000000000      18.411700084457       7.129375000000
      1046    1        1.594500000000      21.173455097126       7.129375000000
      1047    2        0.000000000000      18.411700084457       5.185000000000
      1048    2        1.594500000000      21.173455097126       5.185000000000
      1049    1        4.783500000000      17.491115080234       9.721875000000
      1050    1        3.189000000000      20.252870092903       9.721875000000
      1051    2        4.783500000000      17.491115080234       7.777500000000
      1052    2        3.189000000000      20.252870092903       7.777500000000
      1053    1        3.189000000000      18.411700084457       7.129375000000
      1054    1        4.783500000000      21.173455097126       7.129375000000
      1055    2        3.189000000000      18.411700084457       5.185000000000
      1056    2        4.783500000000      21.173455097126       5.185000000000
      1057    1        7.972500000000      17.491115080234       9.721875000000
      1058    1        6.378000000000      20.252870092903       9.721875000000
      1059    2        7.972500000000      17.491115080234       7.777500000000
      1060    2        6.378000000000      20.252870092903       7.777500000000
      1061    1        6.378000000000      18.411700084457       7.129375000000
      1062    1        7.972500000000      21.173455097126       7.129375000000
      1063    2        6.378000000000      18.411700084457       5.185000000000
      1064    2        7.972500000000      21.173455097126       5.185000000000
      1065    1       11.161500000000      17.491115080234       9.721875000000
      1066    1        9.567000000000      20.252870092903       9.721875000000
      1067    2       11.161500000000      17.491115080234       7.777500000000
      1068    2        9.567000000000      20.252870092903       7.777500000000
      1069    1        9.567000000000      18.411700084457       7.129375000000
      1070    1       11.161500000000      21.173455097126       7.129375000000
      1071    2        9.567000000000      18.411700084457       5.185000000000
      1072    2       11.161500000000      21.173455097126       5.185000000000
      1073    1       14.350500000000      17.491115080234       9.721875000000
      1074    1       12.756000000000      20.252870092903       9.721875000000
      1075    2       14.350500000000      17.491115080234       7.777500000000
      1076    2       12.756000000000      20.252870092903       7.777500000000
      1077    1       12.756000000000      18.411700084457       7.129375000000
      1078    1       14.350500000000      21.173455097126       7.129375000000
      1079    2       12.756000000000      18.411700084457       5.185000000000
      1080    2       14.350500000000      21.173455097126       5.185000000000
      1081    1       17.539500000000      17.491115080234       9.721875000000
      1082    1       15.945000000000      20.252870092903       9.721875000000
      1083    2       17.539500000000      17.491115080234       7.777500000000
      1084    2       15.945000000000      20.252870092903       7.777500000000
      1085    1       15.945000000000      18.411700084457       7.129375000000
      1086    1       17.539500000000      21.173455097126       7.129375000000
      1087    2       15.945000000000      18.411700084457       5.185000000000
      1088    2       17.539500000000      21.173455097126       5.185000000000
      1089    1       20.728500000000      17.491115080234       9.721875000000
      1090    1       19.134000000000      20.252870092903       9.721875000000
      1091    2       20.728500000000      17.491115080234       7.777500000000
      1092    2       19.134000000000      20.252870092903       7.777500000000
      1093    1       19.134000000000      18.411700084457       7.129375000000
      1094    1       20.728500000000      21.173455097126       7.129375000000
      1095    2       19.134000000000      18.411700084457       5.185000000000
      1096    2       20.728500000000      21.173455097126       5.185000000000
      1097    1       23.917500000000      17.491115080234       9.721875000000
      1098    1       22.323000000000      20.252870092903       9.721875000000
      1099    2       23.917500000000      17.491115080234       7.777500000000
      1100    2       22.323000000000      20.252870092903       7.777500000000
      1101    1       22.323000000000      18.411700084457       7.129375000000
      1102    1       23.917500000000      21.173455097126       7.129375000000
      1103    2       22.323000000000      18.411700084457       5.185000000000
      1104    2       23.917500000000      21.173455097126       5.185000000000
      1105    1       27.106500000000      17.491115080234       9.721875000000
      1106    1       25.512000000000      20.252870092903       9.721875000000
      1107    2       27.106500000000      17.491115080234       7.777500000000
      1108    2       25.512000000000      20.252870092903       7.777500000000
      1109    1       25.512000000000      18.411700084457       7.129375000000
      1110    1       27.106500000000      21.173455097126       7.129375000000
      1111    2       25.512000000000      18.411700084457       5.185000000000
      1112    2       27.106500000000      21.173455097126       5.185000000000
      1113    1       30.295500000000      17.491115080234       9.721875000000
      1114    1       28.701000000000      20.252870092903       9.721875000000
      1115    2       30.295500000000      17.491115080234       7.777500000000
      1116    2       28.701000000000      20.252870092903       7.777500000000
      1117    1       28.701000000000      18.411700084457       7.129375000000
      1118    1       30.295500000000      21.173455097126       7.129375000000
      1119    2       28.701000000000      18.411700084457       5.185000000000
      1120    2       30.295500000000      21.173455097126       5.185000000000
      1121    1        1.594500000000      23.014625105571       9.721875000000
      1122    1        0.000000000000      25.776380118240       9.721875000000
      1123    2        1.594500000000      23.014625105571       7.777500000000
      1124    2        0.000000000000      25.776380118240       7.777500000000
      1125    1        0.000000000000      23.935210109794       7.129375000000
      1126    1        1.594500000000      26.696965122463       7.129375000000
      1127    2        0.000000000000      23.935210109794       5.185000000000
      1128    2        1.594500000000      26.696965122463       5.185000000000
      1129    1        4.783500000000      23.014625105571       9.721875000000
      1130    1        3.189000000000      25.776380118240       9.721875000000
      1131    2        4.783500000000      23.014625105571       7.777500000000
      1132    2        3.189000000000      25.776380118240       7.777500000000
      1133    1        3.189000000000      23.935210109794       7.129375000000
      1134    1        4.783500000000      26.696965122463       7.129375000000
      1135    2        3.189000000000      23.935210109794       5.185000000000
      1136    2        4.783500000000      26.696965122463       5.185000000000
      1137    1        7.972500000000      23.014625105571       9.721875000000
      1138    1        6.378000000000      25.776380118240       9.721875000000
      1139    2        7.972500000000      23.014625105571       7.777500000000
      1140    2        6.378000000000      25.776380118240       7.777500000000
      1141    1        6.378000000000      23.935210109794       7.129375000000
      1142    1        7.972500000000      26.696965122463       7.129375000000
      1143    2        6.378000000000      23.935210109794       5.185000000000
      1144    2        7.972500000000      26.696965122463       5.185000000000
      1145    1       11.161500000000      23.014625105571       9.721875000000
      1146    1        9.567000000000      25.776380118240       9.721875000000
      1147    2       11.161500000000      23.014625105571       7.777500000000
      1148    2        9.567000000000      25.776380118240       7.777500000000
      1149    1        9.567000000000      23.935210109794       7.129375000000
      1150    1       11.161500000000      26.696965122463       7.129375000000
      1151    2        9.567000000000      23.935210109794       5.185000000000
      1152    2       11.161500000000      26.696965122463       5.185000000000
      1153    1       14.350500000000      23.014625105571       9.721875000000
      1154    1       12.756000000000      25.776380118240       9.721875000000
      1155    2       14.350500000000      23.014625105571       7.777500000000
      1156    2       12.756000000000      25.776380118240       7.777500000000
      1157    1       12.756000000000      23.935210109794       7.129375000000
      1158    1       14.350500000000      26.696965122463       7.129375000000
      1159    2       12.756000000000      23.935210109794       5.185000000000
      1160    2       14.350500000000      26.696965122463       5.185000000000
      1161    1       17.539500000000      23.014625105571       9.721875000000
      1162    1       15.945000000000      25.776380118240       9.721875000000
      1163    2       17.539500000000      23.014625105571       7.777500000000
      1164    2       15.945000000000      25.776380118240       7.777500000000
      1165    1       15.945000000000      23.935210109794       7.129375000000
      1166    1       17.539500000000      26.696965122463       7.129375000000
      1167    2       15.945000000000      23.935210109794       5.185000000000
      1168    2       17.539500000000      26.696965122463       5.185000000000
      1169    1       20.728500000000      23.014625105571       9.721875000000
      1170    1       19.134000000000      25.776380118240       9.721875000000
      1171    2       20.728500000000      23.014625105571       7.777500000000
      1172    2       19.134000000000      25.776380118240       7.777500000000
      1173    1       19.134000000000      23.935210109794       7.129375000000
      1174    1       20.728500000000      26.696965122463       7.129375000000
      1175    2       19.134000000000      23.935210109794       5.185000000000
      1176    2       20.728500000000      26.696965122463       5.185000000000
      1177    1       23.917500000000      23.014625105571       9.721875000000
      1178    1       22.323000000000      25.776380118240       9.721875000000
      1179    2       23.917500000000      23.014625105571       7.777500000000
      1180    2       22.323000000000      25.776380118240       7.777500000000
      1181    1       22.323000000000      23.935210109794       7.129375000000
      1182    1       23.917500000000      26.696965122463       7.129375000000
      1183    2       22.323000000000      23.935210109794       5.185000000000
      1184    2       23.917500000000      26.696965122463       5.185000000000
      1185    1       27.106500000000      23.014625105571       9.721875000000
      1186    1       25.512000000000      25.776380118240       9.721875000000
      1187    2       27.106500000000      23.014625105571       7.777500000000
      1188    2       25.512000000000      25.776380118240       7.777500000000
      1189    1       25.512000000000      23.935210109794       7.129375000000
      1190    1       27.106500000000      26.696965122463       7.129375000000
      1191    2       25.512000000000      23.935210109794       5.185000000000
      1192    2       27.106500000000      26.696965122463       5.185000000000
      1193    1       30.295500000000      23.014625105571       9.721875000000
      1194    1       28.701000000000      25.776380118240       9.721875000000
      1195    2       30.295500000000      23.014625105571       7.777500000000
      1196    2       28.701000000000      25.776380118240       7.777500000000
      1197    1       28.701000000000      23.935210109794       7.129375000000
      1198    1       30.295500000000      26.696965122463       7.129375000000
      1199    2       28.701000000000      23.935210109794       5.185000000000
      1200    2       30.295500000000      26.696965122463       5.185000000000
      1201    1        1.594500000000      28.538135130909       9.721875000000
      1202    1        0.000000000000      31.299890143577       9.721875000000
      1203    2        1.594500000000      28.538135130909       7.777500000000
      1204    2        0.000000000000      31.299890143577       7.777500000000
      1205    1        0.000000000000      29.458720135131       7.129375000000
      1206    1        1.594500000000      32.220475147800       7.129375000000
      1207    2        0.000000000000      29.458720135131       5.185000000000
      1208    2        1.594500000000      32.220475147800       5.185000000000
      1209    1        4.783500000000      28.538135130909       9.721875000000
      1210    1        3.189000000000      31.299890143577       9.721875000000
      1211    2        4.783500000000      28.538135130909       7.777500000000
      1212    2        3.189000000000      31.299890143577       7.777500000000
      1213    1        3.189000000000      29.458720135131       7.129375000000
      1214    1        4.783500000000      32.220475147800       7.129375000000
      1215    2        3.189000000000      29.458720135131       5.185000000000
      1216    2        4.783500000000      32.220475147800       5.185000000000
      1217    1        7.972500000000      28.538135130909       9.721875000000
      1218    1        6.378000000000      31.299890143577       9.721875000000
      1219    2        7.972500000000      28.538135130909       7.777500000000
      1220    2        6.378000000000      31.299890143577       7.777500000000
      1221    1        6.378000000000      29.458720135131       7.129375000000
      1222    1        7.972500000000      32.220475147800       7.129375000000
      1223    2        6.378000000000      29.458720135131       5.185000000000
      1224    2        7.972500000000      32.220475147800       5.185000000000
      1225    1       11.161500000000      28.538135130909       9.721875000000
      1226    1        9.567000000000      31.299890143577       9.721875000000
      1227    2       11.161500000000      28.538135130909       7.777500000000
      1228    2        9.567000000000      31.299890143577       7.777500000000
      1229    1        9.567000000000      29.458720135131       7.129375000000
      1230    1       11.161500000000      32.220475147800       7.129375000000
      1231    2        9.567000000000      29.458720135131       5.185000000000
      1232    2       11.161500000000      32.220475147800       5.185000000000
      1233    1       14.350500000000      28.538135130909       9.721875000000
      1234    1       12.756000000000      31.299890143577       9.721875000000
      1235    2       14.350500000000      28.538135130909       7.777500000000
      1236    2       12.756000000000      31.299890143577       7.777500000000
      1237    1       12.756000000000      29.458720135131       7.129375000000
      1238    1       14.350500000000      32.220475147800       7.129375000000
      1239    2       12.756000000000      29.458720135131       5.185000000000
      1240    2       14.350500000000      32.220475147800       5.185000000000
      1241    1       17.539500000000      28.538135130909       9.721875000000
      1242    1       15.945000000000      31.299890143577       9.721875000000
      1243    2       17.539500000000      28.538135130909       7.777500000000
      1244    2       15.945000000000      31.299890143577       7.777500000000
      1245    1       15.945000000000      29.458720135131       7.129375000000
      1246    1       17.539500000000      32.220475147800       7.129375000000
      1247    2       15.945000000000      29.458720135131       5.185000000000
      1248    2       17.539500000000      32.220475147800       5.185000000000
      1249    1       20.728500000000      28.538135130909       9.721875000000
      1250    1       19.134000000000      31.299890143577       9.721875000000
      1251    2       20.728500000000      28.538135130909       7.777500000000
      1252    2       19.134000000000      31.299890143577       7.777500000000
      1253    1       19.134000000000      29.458720135131       7.129375000000
      1254    1       20.728500000000      32.220475147800       7.129375000000
      1255    2       19.134000000000      29.458720135131       5.185000000000
      1256    2       20.728500000000      32.220475147800       5.185000000000
      1257    1       23.917500000000      28.538135130909       9.721875000000
      1258    1       22.323000000000      31.299890143577       9.721875000000
      1259    2       23.917500000000      28.538135130909       7.777500000000
      1260    2       22.323000000000      31.299890143577       7.777500000000
      1261    1       22.323000000000      29.458720135131       7.129375000000
      1262    1       23.917500000000      32.220475147800       7.129375000000
      1263    2       22.323000000000      29.458720135131       5.185000000000
      1264    2       23.917500000000      32.220475147800       5.185000000000
      1265    1       27.106500000000      28.538135130909       9.721875000000
      1266    1       25.512000000000      31.299890143577       9.721875000000
      1267    2       27.106500000000      28.538135130909       7.777500000000
      1268    2       25.512000000000      31.299890143577       7.777500000000
      1269    1       25.512000000000      29.458720135131       7.129375000000
      1270    1       27.106500000000      32.220475147800       7.129375000000
      1271    2       25.512000000000      29.458720135131       5.185000000000
      1272    2       27.106500000000      32.220475147800       5.185000000000
      1273    1       30.295500000000      28.538135130909       9.721875000000
      1274    1       28.701000000000      31.299890143577       9.721875000000
      1275    2       30.295500000000      28.538135130909       7.777500000000
      1276    2       28.701000000000      31.299890143577       7.777500000000
      1277    1       28.701000000000      29.458720135131       7.129375000000
      1278    1       30.295500000000      32.220475147800       7.129375000000
      1279    2       28.701000000000      29.458720135131       5.185000000000
      1280    2       30.295500000000      32.220475147800       5.185000000000
      1281    1        1.594500000000      34.061645156246       9.721875000000
      1282    1        0.000000000000      36.823400168914       9.721875000000
      1283    2        1.594500000000      34.061645156246       7.777500000000
      1284    2        0.000000000000      36.823400168914       7.777500000000
      1285    1        0.000000000000      34.982230160469       7.129375000000
      1286    1        1.594500000000      37.743985173137       7.129375000000
      1287    2        0.000000000000      34.982230160469       5.185000000000
      1288    2        1.594500000000      37.743985173137       5.185000000000
      1289    1        4.783500000000      34.061645156246       9.721875000000
      1290    1        3.189000000000      36.823400168914       9.721875000000
      1291    2        4.783500000000      34.061645156246       7.777500000000
      1292    2        3.189000000000      36.823400168914       7.777500000000
      1293    1        3.189000000000      34.982230160469       7.129375000000
      1294    1        4.783500000000      37.743985173137       7.129375000000
      1295    2        3.189000000000      34.982230160469       5.185000000000
      1296    2        4.783500000000      37.743985173137       5.185000000000
      1297    1        7.972500000000      34.061645156246       9.721875000000
      1298    1        6.378000000000      36.823400168914       9.721875000000
      1299    2        7.972500000000      34.061645156246       7.777500000000
      1300    2        6.378000000000      36.823400168914       7.777500000000
      1301    1        6.378000000000      34.982230160469       7.129375000000
      1302    1        7.972500000000      37.743985173137       7.129375000000
      1303    2        6.378000000000      34.982230160469       5.185000000000
      1304    2        7.972500000000      37.743985173137       5.185000000000
      1305    1       11.161500000000      34.061645156246       9.721875000000
      1306    1        9.567000000000      36.823400168914       9.721875000000
      1307    2       11.161500000000      34.061645156246       7.777500000000
      1308    2        9.567000000000      36.823400168914       7.777500000000
      1309    1        9.567000000000      34.982230160469       7.129375000000
      1310    1       11.161500000000      37.743985173137       7.129375000000
      1311    2        9.567000000000      34.982230160469       5.185000000000
      1312    2       11.161500000000      37.743985173137       5.185000000000
      1313    1       14.350500000000      34.061645156246       9.721875000000
      1314    1       12.756000000000      36.823400168914       9.721875000000
      1315    2       14.350500000000      34.061645156246       7.777500000000
      1316    2       12.756000000000      36.823400168914       7.777500000000
      1317    1       12.756000000000      34.982230160469       7.129375000000
      1318    1       14.350500000000      37.743985173137       7.129375000000
      1319    2       12.756000000000      34.982230160469       5.185000000000
      1320    2       14.350500000000      37.743985173137       5.185000000000
      1321    1       17.539500000000      34.061645156246       9.721875000000
      1322    1       15.945000000000      36.823400168914       9.721875000000
      1323    2       17.539500000000      34.061645156246       7.777500000000
      1324    2       15.945000000000      36.823400168914       7.777500000000
      1325    1       15.945000000000      34.982230160469       7.129375000000
      1326    1       17.539500000000      37.743985173137       7.129375000000
      1327    2       15.945000000000      34.982230160469       5.185000000000
      1328    2       17.539500000000      37.743985173137       5.185000000000
      1329    1       20.728500000000      34.061645156246       9.721875000000
      1330    1       19.134000000000      36.823400168914       9.721875000000
      1331    2       20.728500000000      34.061645156246       7.777500000000
      1332    2       19.134000000000      36.823400168914       7.777500000000
      1333    1       19.134000000000      34.982230160469       7.129375000000
      1334    1       20.728500000000      37.743985173137       7.129375000000
      1335    2       19.134000000000      34.982230160469       5.185000000000
      1336    2       20.728500000000      37.743985173137       5.185000000000
      1337    1       23.917500000000      34.061645156246       9.721875000000
      1338    1       22.323000000000      36.823400168914       9.721875000000
      1339    2       23.917500000000      34.061645156246       7.777500000000
      1340    2       22.323000000000      36.823400168914       7.777500000000
      1341    1       22.323000000000      34.982230160469       7.129375000000
      1342    1       23.917500000000      37.743985173137       7.129375000000
      1343    2       22.323000000000      34.982230160469       5.185000000000
      1344    2       23.917500000000      37.743985173137       5.185000000000
      1345    1       27.106500000000      34.061645156246       9.721875000000
      1346    1       25.512000000000      36.823400168914       9.721875000000
      1347    2       27.106500000000      34.061645156246       7.777500000000
      1348    2       25.512000000000      36.823400168914       7.777500000000
      1349    1       25.512000000000      34.982230160469       7.129375000000
      1350    1       27.106500000000      37.743985173137       7.129375000000
      1351    2       25.512000000000      34.982230160469       5.185000000000
      1352    2       27.106500000000      37.743985173137       5.185000000000
      1353    1       30.295500000000      34.061645156246       9.721875000000
      1354    1       28.701000000000      36.823400168914       9.721875000000
      1355    2       30.295500000000      34.061645156246       7.777500000000
      1356    2       28.701000000000      36.823400168914       7.777500000000
      1357    1       28.701000000000      34.982230160469       7.129375000000
      1358    1       30.295500000000      37.743985173137       7.129375000000
      1359    2       28.701000000000      34.982230160469       5.185000000000
      1360    2       30.295500000000      37.743985173137       5.185000000000
      1361    1        1.594500000000      39.585155181583       9.721875000000
      1362    1        0.000000000000      42.346910194251       9.721875000000
      1363    2        1.594500000000      39.585155181583       7.777500000000
      1364    2        0.000000000000      42.346910194251       7.777500000000
      1365    1        0.000000000000      40.505740185806       7.129375000000
      1366    1        1.594500000000      43.267495198474       7.129375000000
      1367    2        0.000000000000      40.505740185806       5.185000000000
      1368    2        1.594500000000      43.267495198474       5.185000000000
      1369    1        4.783500000000      39.585155181583       9.721875000000
      1370    1        3.189000000000      42.346910194251       9.721875000000
      1371    2        4.783500000000      39.585155181583       7.777500000000
      1372    2        3.189000000000      42.346910194251       7.777500000000
      1373    1        3.189000000000      40.505740185806       7.129375000000
      1374    1        4.783500000000      43.267495198474       7.129375000000
      1375    2        3.189000000000      40.505740185806       5.185000000000
      1376    2        4.783500000000      43.267495198474       5.185000000000
      1377    1        7.972500000000      39.585155181583       9.721875000000
      1378    1        6.378000000000      42.346910194251       9.721875000000
      1379    2        7.972500000000      39.585155181583       7.777500000000
      1380    2        6.378000000000      42.346910194251       7.777500000000
      1381    1        6.378000000000      40.505740185806       7.129375000000
      1382    1        7.972500000000      43.267495198474       7.129375000000
      1383    2        6.378000000000      40.505740185806       5.185000000000
      1384    2        7.972500000000      43.267495198474       5.185000000000
      1385    1       11.161500000000      39.585155181583       9.721875000000
      1386    1        9.567000000000      42.346910194251       9.721875000000
      1387    2       11.161500000000      39.585155181583       7.777500000000
      1388    2        9.567000000000      42.346910194251       7.777500000000
      1389    1        9.567000000000      40.505740185806       7.129375000000
      1390    1       11.161500000000      43.267495198474       7.129375000000
      1391    2        9.567000000000      40.505740185806       5.185000000000
      1392    2       11.161500000000      43.267495198474       5.185000000000
      1393    1       14.350500000000      39.585155181583       9.721875000000
      1394    1       12.756000000000      42.346910194251       9.721875000000
      1395    2       14.350500000000      39.585155181583       7.777500000000
      1396    2       12.756000000000      42.346910194251       7.777500000000
      1397    1       12.756000000000      40.505740185806       7.129375000000
      1398    1       14.350500000000      43.267495198474       7.129375000000
      1399    2       12.756000000000      40.505740185806       5.185000000000
      1400    2       14.350500000000      43.267495198474       5.185000000000
      1401    1       17.539500000000      39.585155181583       9.721875000000
      1402    1       15.945000000000      42.346910194251       9.721875000000
      1403    2       17.539500000000      39.585155181583       7.777500000000
      1404    2       15.945000000000      42.346910194251       7.777500000000
      1405    1       15.945000000000      40.505740185806       7.129375000000
      1406    1       17.539500000000      43.267495198474       7.129375000000
      1407    2       15.945000000000      40.505740185806       5.185000000000
      1408    2       17.539500000000      43.267495198474       5.185000000000
      1409    1       20.728500000000      39.585155181583       9.721875000000
      1410    1       19.134000000000      42.346910194251       9.721875000000
      1411    2       20.728500000000      39.585155181583       7.777500000000
      1412    2       19.134000000000      42.346910194251       7.777500000000
      1413    1       19.134000000000      40.505740185806       7.129375000000
      1414    1       20.728500000000      43.267495198474       7.129375000000
      1415    2       19.134000000000      40.505740185806       5.185000000000
      1416    2       20.728500000000      43.267495198474       5.185000000000
      1417    1       23.917500000000      39.585155181583       9.721875000000
      1418    1       22.323000000000      42.346910194251       9.721875000000
      1419    2       23.917500000000      39.585155181583       7.777500000000
      1420    2       22.323000000000      42.346910194251       7.777500000000
      1421    1       22.323000000000      40.505740185806       7.129375000000
      1422    1       23.917500000000      43.267495198474       7.129375000000
      1423    2       22.323000000000      40.505740185806       5.185000000000
      1424    2       23.917500000000      43.267495198474       5.185000000000
      1425    1       27.106500000000      39.585155181583       9.721875000000
      1426    1       25.512000000000      42.346910194251       9.721875000000
      1427    2       27.106500000000      39.585155181583       7.777500000000
      1428    2       25.512000000000      42.346910194251       7.777500000000
      1429    1       25.512000000000      40.505740185806       7.129375000000
      1430    1       27.106500000000      43.267495198474       7.129375000000
      1431    2       25.512000000000      40.505740185806       5.185000000000
      1432    2       27.106500000000      43.267495198474       5.185000000000
      1433    1       30.295500000000      39.585155181583       9.721875000000
      1434    1       28.701000000000      42.346910194251       9.721875000000
      1435    2       30.295500000000      39.585155181583       7.777500000000
      1436    2       28.701000000000      42.346910194251       7.777500000000
      1437    1       28.701000000000      40.505740185806       7.129375000000
      1438    1       30.295500000000      43.267495198474       7.129375000000
      1439    2       28.701000000000      40.505740185806       5.185000000000
      1440    2       30.295500000000      43.267495198474       5.185000000000
      1441    1        1.594500000000      45.108665206920       9.721875000000
      1442    1        0.000000000000      47.870420219589       9.721875000000
      1443    2        1.594500000000      45.108665206920       7.777500000000
      1444    2        0.000000000000      47.870420219589       7.777500000000
      1445    1        0.000000000000      46.029250211143       7.129375000000
      1446    1        1.594500000000      48.791005223811       7.129375000000
      1447    2        0.000000000000      46.029250211143       5.185000000000
      1448    2        1.594500000000      48.791005223811       5.185000000000
      1449    1        4.783500000000      45.108665206920       9.721875000000
      1450    1        3.189000000000      47.870420219589       9.721875000000
      1451    2        4.783500000000      45.108665206920       7.777500000000
      1452    2        3.189000000000      47.870420219589       7.777500000000
      1453    1        3.189000000000      46.029250211143       7.129375000000
      1454    1        4.783500000000      48.791005223811       7.129375000000
      1455    2        3.189000000000      46.029250211143       5.185000000000
      1456    2        4.783500000000      48.791005223811       5.185000000000
      1457    1        7.972500000000      45.108665206920       9.721875000000
      1458    1        6.378000000000      47.870420219589       9.721875000000
      1459    2        7.972500000000      45.108665206920       7.777500000000
      1460    2        6.378000000000      47.870420219589       7.777500000000
      1461    1        6.378000000000      46.029250211143       7.129375000000
      1462    1        7.972500000000      48.791005223811       7.129375000000
      1463    2        6.378000000000      46.029250211143       5.185000000000
      1464    2        7.972500000000      48.791005223811       5.185000000000
      1465    1       11.161500000000      45.108665206920       9.721875000000
      1466    1        9.567000000000      47.870420219589       9.721875000000
      1467    2       11.161500000000      45.108665206920       7.777500000000
      1468    2        9.567000000000      47.870420219589       7.777500000000
      1469    1        9.567000000000      46.029250211143       7.129375000000
      1470    1       11.161500000000      48.791005223811       7.129375000000
      1471    2        9.567000000000      46.029250211143       5.185000000000
      1472    2       11.161500000000      48.791005223811       5.185000000000
      1473    1       14.350500000000      45.108665206920       9.721875000000
      1474    1       12.756000000000      47.870420219589       9.721875000000
      1475    2       14.350500000000      45.108665206920       7.777500000000
      1476    2       12.756000000000      47.870420219589       7.777500000000
      1477    1       12.756000000000      46.029250211143       7.129375000000
      1478    1       14.350500000000      48.791005223811       7.129375000000
      1479    2       12.756000000000      46.029250211143       5.185000000000
      1480    2       14.350500000000      48.791005223811       5.185000000000
      1481    1       17.539500000000      45.108665206920       9.721875000000
      1482    1       15.945000000000      47.870420219589       9.721875000000
      1483    2       17.539500000000      45.108665206920       7.777500000000
      1484    2       15.945000000000      47.870420219589       7.777500000000
      1485    1       15.945000000000      46.029250211143       7.129375000000
      1486    1       17.539500000000      48.791005223811       7.129375000000
      1487    2       15.945000000000      46.029250211143       5.185000000000
      1488    2       17.539500000000      48.791005223811       5.185000000000
      1489    1       20.728500000000      45.108665206920       9.721875000000
      1490    1       19.134000000000      47.870420219589       9.721875000000
      1491    2       20.728500000000      45.108665206920       7.777500000000
      1492    2       19.134000000000      47.870420219589       7.777500000000
      1493    1       19.134000000000      46.029250211143       7.129375000000
      1494    1       20.728500000000      48.791005223811       7.129375000000
      1495    2       19.134000000000      46.029250211143       5.185000000000
      1496    2       20.728500000000      48.791005223811       5.185000000000
      1497    1       23.917500000000      45.108665206920       9.721875000000
      1498    1       22.323000000000      47.870420219589       9.721875000000
      1499    2       23.917500000000      45.108665206920       7.777500000000
      1500    2       22.323000000000      47.870420219589       7.777500000000
      1501    1       22.323000000000      46.029250211143       7.129375000000
      1502    1       23.917500000000      48.791005223811       7.129375000000
      1503    2       22.323000000000      46.029250211143       5.185000000000
      1504    2       23.917500000000      48.791005223811       5.185000000000
      1505    1       27.106500000000      45.108665206920       9.721875000000
      1506    1       25.512000000000      47.870420219589       9.721875000000
      1507    2       27.106500000000      45.108665206920       7.777500000000
      1508    2       25.512000000000      47.870420219589       7.777500000000
      1509    1       25.512000000000      46.029250211143       7.129375000000
      1510    1       27.106500000000      48.791005223811       7.129375000000
      1511    2       25.512000000000      46.029250211143       5.185000000000
      1512    2       27.106500000000      48.791005223811       5.185000000000
      1513    1       30.295500000000      45.108665206920       9.721875000000
      1514    1       28.701000000000      47.870420219589       9.721875000000
      1515    2       30.295500000000      45.108665206920       7.777500000000
      1516    2       28.701000000000      47.870420219589       7.777500000000
      1517    1       28.701000000000      46.029250211143       7.129375000000
      1518    1       30.295500000000      48.791005223811       7.129375000000
      1519    2       28.701000000000      46.029250211143       5.185000000000
      1520    2       30.295500000000      48.791005223811       5.185000000000
      1521    1        1.594500000000      50.632175232257       9.721875000000
      1522    1        0.000000000000      53.393930244926       9.721875000000
      1523    2        1.594500000000      50.632175232257       7.777500000000
      1524    2        0.000000000000      53.393930244926       7.777500000000
      1525    1        0.000000000000      51.552760236480       7.129375000000
      1526    1        1.594500000000      54.314515249149       7.129375000000
      1527    2        0.000000000000      51.552760236480       5.185000000000
      1528    2        1.594500000000      54.314515249149       5.185000000000
      1529    1        4.783500000000      50.632175232257       9.721875000000
      1530    1        3.189000000000      53.393930244926       9.721875000000
      1531    2        4.783500000000      50.632175232257       7.777500000000
      1532    2        3.189000000000      53.393930244926       7.777500000000
      1533    1        3.189000000000      51.552760236480       7.129375000000
      1534    1        4.783500000000      54.314515249149       7.129375000000
      1535    2        3.189000000000      51.552760236480       5.185000000000
      1536    2        4.783500000000      54.314515249149       5.185000000000
      1537    1        7.972500000000      50.632175232257       9.721875000000
      1538    1        6.378000000000      53.393930244926       9.721875000000
      1539    2        7.972500000000      50.632175232257       7.777500000000
      1540    2        6.378000000000      53.393930244926       7.777500000000
      1541    1        6.378000000000      51.552760236480       7.129375000000
      1542    1        7.972500000000      54.314515249149       7.129375000000
      1543    2        6.378000000000      51.552760236480       5.185000000000
      1544    2        7.972500000000      54.314515249149       5.185000000000
      1545    1       11.161500000000      50.632175232257       9.721875000000
      1546    1        9.567000000000      53.393930244926       9.721875000000
      1547    2       11.161500000000      50.632175232257       7.777500000000
      1548    2        9.567000000000      53.393930244926       7.777500000000
      1549    1        9.567000000000      51.552760236480       7.129375000000
      1550    1       11.161500000000      54.314515249149       7.129375000000
      1551    2        9.567000000000      51.552760236480       5.185000000000
      1552    2       11.161500000000      54.314515249149       5.185000000000
      1553    1       14.350500000000      50.632175232257       9.721875000000
      1554    1       12.756000000000      53.393930244926       9.721875000000
      1555    2       14.350500000000      50.632175232257       7.777500000000
      1556    2       12.756000000000      53.393930244926       7.777500000000
      1557    1       12.756000000000      51.552760236480       7.129375000000
      1558    1       14.350500000000      54.314515249149       7.129375000000
      1559    2       12.756000000000      51.552760236480       5.185000000000
      1560    2       14.350500000000      54.314515249149       5.185000000000
      1561    1       17.539500000000      50.632175232257       9.721875000000
      1562    1       15.945000000000      53.393930244926       9.721875000000
      1563    2       17.539500000000      50.632175232257       7.777500000000
      1564    2       15.945000000000      53.393930244926       7.777500000000
      1565    1       15.945000000000      51.552760236480       7.129375000000
      1566    1       17.539500000000      54.314515249149       7.129375000000
      1567    2       15.945000000000      51.552760236480       5.185000000000
      1568    2       17.539500000000      54.314515249149       5.185000000000
      1569    1       20.728500000000      50.632175232257       9.721875000000
      1570    1       19.134000000000      53.393930244926       9.721875000000
      1571    2       20.728500000000      50.632175232257       7.777500000000
      1572    2       19.134000000000      53.393930244926       7.777500000000
      1573    1       19.134000000000      51.552760236480       7.129375000000
      1574    1       20.728500000000      54.314515249149       7.129375000000
      1575    2       19.134000000000      51.552760236480       5.185000000000
      1576    2       20.728500000000      54.314515249149       5.185000000000
      1577    1       23.917500000000      50.632175232257       9.721875000000
      1578    1       22.323000000000      53.393930244926       9.721875000000
      1579    2       23.917500000000      50.632175232257       7.777500000000
      1580    2       22.323000000000      53.393930244926       7.777500000000
      1581    1       22.323000000000      51.552760236480       7.129375000000
      1582    1       23.917500000000      54.314515249149       7.129375000000
      1583    2       22.323000000000      51.552760236480       5.185000000000
      1584    2       23.917500000000      54.314515249149       5.185000000000
      1585    1       27.106500000000      50.632175232257       9.721875000000
      1586    1       25.512000000000      53.393930244926       9.721875000000
      1587    2       27.106500000000      50.632175232257       7.777500000000
      1588    2       25.512000000000      53.393930244926       7.777500000000
      1589    1       25.512000000000      51.552760236480       7.129375000000
      1590    1       27.106500000000      54.314515249149       7.129375000000
      1591    2       25.512000000000      51.552760236480       5.185000000000
      1592    2       27.106500000000      54.314515249149       5.185000000000
      1593    1       30.295500000000      50.632175232257       9.721875000000
      1594    1       28.701000000000      53.393930244926       9.721875000000
      1595    2       30.295500000000      50.632175232257       7.777500000000
      1596    2       28.701000000000      53.393930244926       7.777500000000
      1597    1       28.701000000000      51.552760236480       7.129375000000
      1598    1       30.295500000000      54.314515249149       7.129375000000
      1599    2       28.701000000000      51.552760236480       5.185000000000
      1600    2       30.295500000000      54.314515249149       5.185000000000
      1601    1        1.594500000000       0.920585004223      14.906875000000
      1602    1        0.000000000000       3.682340016891      14.906875000000
      1603    2        1.594500000000       0.920585004223      12.962500000000
      1604    2        0.000000000000       3.682340016891      12.962500000000
      1605    1        0.000000000000       1.841170008446      12.314375000000
      1606    1        1.594500000000       4.602925021114      12.314375000000
      1607    2        0.000000000000       1.841170008446      10.370000000000
      1608    2        1.594500000000       4.602925021114      10.370000000000
      1609    1        4.783500000000       0.920585004223      14.906875000000
      1610    1        3.189000000000       3.682340016891      14.906875000000
      1611    2        4.783500000000       0.920585004223      12.962500000000
      1612    2        3.189000000000       3.682340016891      12.962500000000
      1613    1        3.189000000000       1.841170008446      12.314375000000
      1614    1        4.783500000000       4.602925021114      12.314375000000
      1615    2        3.189000000000       1.841170008446      10.370000000000
      1616    2        4.783500000000       4.602925021114      10.370000000000
      1617    1        7.972500000000       0.920585004223      14.906875000000
      1618    1        6.378000000000       3.682340016891      14.906875000000
      1619    2        7.972500000000       0.920585004223      12.962500000000
      1620    2        6.378000000000       3.682340016891      12.962500000000
      1621    1        6.378000000000       1.841170008446      12.314375000000
      1622    1        7.972500000000       4.602925021114      12.314375000000
      1623    2        6.378000000000       1.841170008446      10.370000000000
      1624    2        7.972500000000       4.602925021114      10.370000000000
      1625    1       11.161500000000       0.920585004223      14.906875000000
      1626    1        9.567000000000       3.682340016891      14.906875000000
      1627    2       11.161500000000       0.920585004223      12.962500000000
      1628    2        9.567000000000       3.682340016891      12.962500000000
      1629    1        9.567000000000       1.841170008446      12.314375000000
      1630    1       11.161500000000       4.602925021114      12.314375000000
      1631    2        9.567000000000       1.841170008446      10.370000000000
      1632    2       11.161500000000       4.602925021114      10.370000000000
      1633    1       14.350500000000       0.920585004223      14.906875000000
      1634    1       12.756000000000       3.682340016891      14.906875000000
      1635    2       14.350500000000       0.920585004223      12.962500000000
      1636    2       12.756000000000       3.682340016891      12.962500000000
      1637    1       12.756000000000       1.841170008446      12.314375000000
      1638    1       14.350500000000       4.602925021114      12.314375000000
      1639    2       12.756000000000       1.841170008446      10.370000000000
      1640    2       14.350500000000       4.602925021114      10.370000000000
      1641    1       17.539500000000       0.920585004223      14.906875000000
      1642    1       15.945000000000       3.682340016891      14.906875000000
      1643    2       17.539500000000       0.920585004223      12.962500000000
      1644    2       15.945000000000       3.682340016891      12.962500000000
      1645    1       15.945000000000       1.841170008446      12.314375000000
      1646    1       17.539500000000       4.602925021114      12.314375000000
      1647    2       15.945000000000       1.841170008446      10.370000000000
      1648    2       17.539500000000       4.602925021114      10.370000000000
      1649    1       20.728500000000       0.920585004223      14.906875000000
      1650    1       19.134000000000       3.682340016891      14.906875000000
      1651    2       20.728500000000       0.920585004223      12.962500000000
      1652    2       19.134000000000       3.682340016891      12.962500000000
      1653    1       19.134000000000       1.841170008446      12.314375000000
      1654    1       20.728500000000       4.602925021114      12.314375000000
      1655    2       19.134000000000       1.841170008446      10.370000000000
      1656    2       20.728500000000       4.602925021114      10.370000000000
      1657    1       23.917500000000       0.920585004223      14.906875000000
      1658    1       22.323000000000       3.682340016891      14.906875000000
      1659    2       23.917500000000       0.920585004223      12.962500000000
      1660    2       22.323000000000       3.682340016891      12.962500000000
      1661    1       22.323000000000       1.841170008446      12.314375000000
      1662    1       23.917500000000       4.602925021114      12.314375000000
      1663    2       22.323000000000       1.841170008446      10.370000000000
      1664    2       23.917500000000       4.602925021114      10.370000000000
      1665    1       27.106500000000       0.920585004223      14.906875000000
      1666    1       25.512000000000       3.682340016891      14.906875000000
      1667    2       27.106500000000       0.920585004223      12.962500000000
      1668    2       25.512000000000       3.682340016891      12.962500000000
      1669    1       25.512000000000       1.841170008446      12.314375000000
      1670    1       27.106500000000       4.602925021114      12.314375000000
      1671    2       25.512000000000       1.841170008446      10.370000000000
      1672    2       27.106500000000       4.602925021114      10.370000000000
      1673    1       30.295500000000       0.920585004223      14.906875000000
      1674    1       28.701000000000       3.682340016891      14.906875000000
      1675    2       30.295500000000       0.920585004223      12.962500000000
      1676    2       28.701000000000       3.682340016891      12.962500000000
      1677    1       28.701000000000       1.841170008446      12.314375000000
      1678    1       30.295500000000       4.602925021114      12.314375000000
      1679    2       28.701000000000       1.841170008446      10.370000000000
      1680    2       30.295500000000       4.602925021114      10.370000000000
      1681    1        1.594500000000       6.444095029560      14.906875000000
      1682    1        0.000000000000       9.205850042229      14.906875000000
      1683    2        1.594500000000       6.444095029560      12.962500000000
      1684    2        0.000000000000       9.205850042229      12.962500000000
      1685    1        0.000000000000       7.364680033783      12.314375000000
      1686    1        1.594500000000      10.126435046451      12.314375000000
      1687    2        0.000000000000       7.364680033783      10.370000000000
      1688    2        1.594500000000      10.126435046451      10.370000000000
      1689    1        4.783500000000       6.444095029560      14.906875000000
      1690    1        3.189000000000       9.205850042229      14.906875000000
      1691    2        4.783500000000       6.444095029560      12.962500000000
      1692    2        3.189000000000       9.205850042229      12.962500000000
      1693    1        3.189000000000       7.364680033783      12.314375000000
      1694    1        4.783500000000      10.126435046451      12.314375000000
      1695    2        3.189000000000       7.364680033783      10.370000000000
      1696    2        4.783500000000      10.126435046451      10.370000000000
      1697    1        7.972500000000       6.444095029560      14.906875000000
      1698    1        6.378000000000       9.205850042229      14.906875000000
      1699    2        7.972500000000       6.444095029560      12.962500000000
      1700    2        6.378000000000       9.205850042229      12.962500000000
      1701    1        6.378000000000       7.364680033783      12.314375000000
      1702    1        7.972500000000      10.126435046451      12.314375000000
      1703    2        6.378000000000       7.364680033783      10.370000000000
      1704    2        7.972500000000      10.126435046451      10.370000000000
      1705    1       11.161500000000       6.444095029560      14.906875000000
      1706    1        9.567000000000       9.205850042229      14.906875000000
      1707    2       11.161500000000       6.444095029560      12.962500000000
      1708    2        9.567000000000       9.205850042229      12.962500000000
      1709    1        9.567000000000       7.364680033783      12.314375000000
      1710    1       11.161500000000      10.126435046451      12.314375000000
      1711    2        9.567000000000       7.364680033783      10.370000000000
      1712    2       11.161500000000      10.126435046451      10.370000000000
      1713    1       14.350500000000       6.444095029560      14.906875000000
      1714    1       12.756000000000       9.205850042229      14.906875000000
      1715    2       14.350500000000       6.444095029560      12.962500000000
      1716    2       12.756000000000       9.205850042229      12.962500000000
      1717    1       12.756000000000       7.364680033783      12.314375000000
      1718    1       14.350500000000      10.126435046451      12.314375000000
      1719    2       12.756000000000       7.364680033783      10.370000000000
      1720    2       14.350500000000      10.126435046451      10.370000000000
      1721    1       17.539500000000       6.444095029560      14.906875000000
      1722    1       15.945000000000       9.205850042229      14.906875000000
      1723    2       17.539500000000       6.444095029560      12.962500000000
      1724    2       15.945000000000       9.205850042229      12.962500000000
      1725    1       15.945000000000       7.364680033783      12.314375000000
      1726    1       17.539500000000      10.126435046451      12.314375000000
      1727    2       15.945000000000       7.364680033783      10.370000000000
      1728    2       17.539500000000      10.126435046451      10.370000000000
      1729    1       20.728500000000       6.444095029560      14.906875000000
      1730    1       19.134000000000       9.205850042229      14.906875000000
      1731    2       20.728500000000       6.444095029560      12.962500000000
      1732    2       19.134000000000       9.205850042229      12.962500000000
      1733    1       19.134000000000       7.364680033783      12.314375000000
      1734    1       20.728500000000      10.126435046451      12.314375000000
      1735    2       19.134000000000       7.364680033783      10.370000000000
      1736    2       20.728500000000      10.126435046451      10.370000000000
      1737    1       23.917500000000       6.444095029560      14.906875000000
      1738    1       22.323000000000       9.205850042229      14.906875000000
      1739    2       23.917500000000       6.444095029560      12.962500000000
      1740    2       22.323000000000       9.205850042229      12.962500000000
      1741    1       22.323000000000       7.364680033783      12.314375000000
      1742    1       23.917500000000      10.126435046451      12.314375000000
      1743    2       22.323000000000       7.364680033783      10.370000000000
      1744    2       23.917500000000      10.126435046451      10.370000000000
      1745    1       27.106500000000       6.444095029560      14.906875000000
      1746    1       25.512000000000       9.205850042229      14.906875000000
      1747    2       27.106500000000       6.444095029560      12.962500000000
      1748    2       25.512000000000       9.205850042229      12.962500000000
      1749    1       25.512000000000       7.364680033783      12.314375000000
      1750    1       27.106500000000      10.126435046451      12.314375000000
      1751    2       25.512000000000       7.364680033783      10.370000000000
      1752    2       27.106500000000      10.126435046451      10.370000000000
      1753    1       30.295500000000       6.444095029560      14.906875000000
      1754    1       28.701000000000       9.205850042229      14.906875000000
      1755    2       30.295500000000       6.444095029560      12.962500000000
      1756    2       28.701000000000       9.205850042229      12.962500000000
      1757    1       28.701000000000       7.364680033783      12.314375000000
      1758    1       30.295500000000      10.126435046451      12.314375000000
      1759    2       28.701000000000       7.364680033783      10.370000000000
      1760    2       30.295500000000      10.126435046451      10.370000000000
      1761    1        1.594500000000      11.967605054897      14.906875000000
      1762    1        0.000000000000      14.729360067566      14.906875000000
      1763    2        1.594500000000      11.967605054897      12.962500000000
      1764    2        0.000000000000      14.729360067566      12.962500000000
      1765    1        0.000000000000      12.888190059120      12.314375000000
      1766    1        1.594500000000      15.649945071789      12.314375000000
      1767    2        0.000000000000      12.888190059120      10.370000000000
      1768    2        1.594500000000      15.649945071789      10.370000000000
      1769    1        4.783500000000      11.967605054897      14.906875000000
      1770    1        3.189000000000      14.729360067566      14.906875000000
      1771    2        4.783500000000      11.967605054897      12.962500000000
      1772    2        3.189000000000      14.729360067566      12.962500000000
      1773    1        3.189000000000      12.888190059120      12.314375000000
      1774    1        4.783500000000      15.649945071789      12.314375000000
      1775    2        3.189000000000      12.888190059120      10.370000000000
      1776    2        4.783500000000      15.649945071789      10.370000000000
      1777    1        7.972500000000      11.967605054897      14.906875000000
      1778    1        6.378000000000      14.729360067566      14.906875000000
      1779    2        7.972500000000      11.967605054897      12.962500000000
      1780    2        6.378000000000      14.729360067566      12.962500000000
      1781    1        6.378000000000      12.888190059120      12.314375000000
      1782    1        7.972500000000      15.649945071789      12.314375000000
      1783    2        6.378000000000      12.888190059120      10.370000000000
      1784    2        7.972500000000      15.649945071789      10.370000000000
      1785    1       11.161500000000      11.967605054897      14.906875000000
      1786    1        9.567000000000      14.729360067566      14.906875000000
      1787    2       11.161500000000      11.967605054897      12.962500000000
      1788    2        9.567000000000      14.729360067566      12.962500000000
      1789    1        9.567000000000      12.888190059120      12.314375000000
      1790    1       11.161500000000      15.649945071789      12.314375000000
      1791    2        9.567000000000      12.888190059120      10.370000000000
      1792    2       11.161500000000      15.649945071789      10.370000000000
      1793    1       14.350500000000      11.967605054897      14.906875000000
      1794    1       12.756000000000      14.729360067566      14.906875000000
      1795    2       14.350500000000      11.967605054897      12.962500000000
      1796    2       12.756000000000      14.729360067566      12.962500000000
      1797    1       12.756000000000      12.888190059120      12.314375000000
      1798    1       14.350500000000      15.649945071789      12.314375000000
      1799    2       12.756000000000      12.888190059120      10.370000000000
      1800    2       14.350500000000      15.649945071789      10.370000000000
      1801    1       17.539500000000      11.967605054897      14.906875000000
      1802    1       15.945000000000      14.729360067566      14.906875000000
      1803    2       17.539500000000      11.967605054897      12.962500000000
      1804    2       15.945000000000      14.729360067566      12.962500000000
      1805    1       15.945000000000      12.888190059120      12.314375000000
      1806    1       17.539500000000      15.649945071789      12.314375000000
      1807    2       15.945000000000      12.888190059120      10.370000000000
      1808    2       17.539500000000      15.649945071789      10.370000000000
      1809    1       20.728500000000      11.967605054897      14.906875000000
      1810    1       19.134000000000      14.729360067566      14.906875000000
      1811    2       20.728500000000      11.967605054897      12.962500000000
      1812    2       19.134000000000      14.729360067566      12.962500000000
      1813    1       19.134000000000      12.888190059120      12.314375000000
      1814    1       20.728500000000      15.649945071789      12.314375000000
      1815    2       19.134000000000      12.888190059120      10.370000000000
      1816    2       20.728500000000      15.649945071789      10.370000000000
      1817    1       23.917500000000      11.967605054897      14.906875000000
      1818    1       22.323000000000      14.729360067566      14.906875000000
      1819    2       23.917500000000      11.967605054897      12.962500000000
      1820    2       22.323000000000      14.729360067566      12.962500000000
      1821    1       22.323000000000      12.888190059120      12.314375000000
      1822    1       23.917500000000      15.649945071789      12.314375000000
      1823    2       22.323000000000      12.888190059120      10.370000000000
      1824    2       23.917500000000      15.649945071789      10.370000000000
      1825    1       27.106500000000      11.967605054897      14.906875000000
      1826    1       25.512000000000      14.729360067566      14.906875000000
      1827    2       27.106500000000      11.967605054897      12.962500000000
      1828    2       25.512000000000      14.729360067566      12.962500000000
      1829    1       25.512000000000      12.888190059120      12.314375000000
      1830    1       27.106500000000      15.649945071789      12.314375000000
      1831    2       25.512000000000      12.888190059120      10.370000000000
      1832    2       27.106500000000      15.649945071789      10.370000000000
      1833    1       30.295500000000      11.967605054897      14.906875000000
      1834    1       28.701000000000      14.729360067566      14.906875000000
      1835    2       30.295500000000      11.967605054897      12.962500000000
      1836    2       28.701000000000      14.729360067566      12.962500000000
      1837    1       28.701000000000      12.888190059120      12.314375000000
      1838    1       30.295500000000      15.649945071789      12.314375000000
      1839    2       28.701000000000      12.888190059120      10.370000000000
      1840    2       30.295500000000      15.649945071789      10.370000000000
      1841    1        1.594500000000      17.491115080234      14.906875000000
      1842    1        0.000000000000      20.252870092903      14.906875000000
      1843    2        1.594500000000      17.491115080234      12.962500000000
      1844    2        0.000000000000      20.252870092903      12.962500000000
      1845    1        0.000000000000      18.411700084457      12.314375000000
      1846    1        1.594500000000      21.173455097126      12.314375000000
      1847    2        0.000000000000      18.411700084457      10.370000000000
      1848    2        1.594500000000      21.173455097126      10.370000000000
      1849    1        4.783500000000      17.491115080234      14.906875000000
      1850    1        3.189000000000      20.252870092903      14.906875000000
      1851    2        4.783500000000      17.491115080234      12.962500000000
      1852    2        3.189000000000      20.252870092903      12.962500000000
      1853    1        3.189000000000      18.411700084457      12.314375000000
      1854    1        4.783500000000      21.173455097126      12.314375000000
      1855    2        3.189000000000      18.411700084457      10.370000000000
      1856    2        4.783500000000      21.173455097126      10.370000000000
      1857    1        7.972500000000      17.491115080234      14.906875000000
      1858    1        6.378000000000      20.252870092903      14.906875000000
      1859    2        7.972500000000      17.491115080234      12.962500000000
      1860    2        6.378000000000      20.252870092903      12.962500000000
      1861    1        6.378000000000      18.411700084457      12.314375000000
      1862    1        7.972500000000      21.173455097126      12.314375000000
      1863    2        6.378000000000      18.411700084457      10.370000000000
      1864    2        7.972500000000      21.173455097126      10.370000000000
      1865    1       11.161500000000      17.491115080234      14.906875000000
      1866    1        9.567000000000      20.252870092903      14.906875000000
      1867    2       11.161500000000      17.491115080234      12.962500000000
      1868    2        9.567000000000      20.252870092903      12.962500000000
      1869    1        9.567000000000      18.411700084457      12.314375000000
      1870    1       11.161500000000      21.173455097126      12.314375000000
      1871    2        9.567000000000      18.411700084457      10.370000000000
      1872    2       11.161500000000      21.173455097126      10.370000000000
      1873    1       14.350500000000      17.491115080234      14.906875000000
      1874    1       12.756000000000      20.252870092903      14.906875000000
      1875    2       14.350500000000      17.491115080234      12.962500000000
      1876    2       12.756000000000      20.252870092903      12.962500000000
      1877    1       12.756000000000      18.411700084457      12.314375000000
      1878    1       14.350500000000      21.173455097126      12.314375000000
      1879    2       12.756000000000      18.411700084457      10.370000000000
      1880    2       14.350500000000      21.173455097126      10.370000000000
      1881    1       17.539500000000      17.491115080234      14.906875000000
      1882    1       15.945000000000      20.252870092903      14.906875000000
      1883    2       17.539500000000      17.491115080234      12.962500000000
      1884    2       15.945000000000      20.252870092903      12.962500000000
      1885    1       15.945000000000      18.411700084457      12.314375000000
      1886    1       17.539500000000      21.173455097126      12.314375000000
      1887    2       15.945000000000      18.411700084457      10.370000000000
      1888    2       17.539500000000      21.173455097126      10.370000000000
      1889    1       20.728500000000      17.491115080234      14.906875000000
      1890    1       19.134000000000      20.252870092903      14.906875000000
      1891    2       20.728500000000      17.491115080234      12.962500000000
      1892    2       19.134000000000      20.252870092903      12.962500000000
      1893    1       19.134000000000      18.411700084457      12.314375000000
      1894    1       20.728500000000      21.173455097126      12.314375000000
      1895    2       19.134000000000      18.411700084457      10.370000000000
      1896    2       20.728500000000      21.173455097126      10.370000000000
      1897    1       23.917500000000      17.491115080234      14.906875000000
      1898    1       22.323000000000      20.252870092903      14.906875000000
      1899    2       23.917500000000      17.491115080234      12.962500000000
      1900    2       22.323000000000      20.252870092903      12.962500000000
      1901    1       22.323000000000      18.411700084457      12.314375000000
      1902    1       23.917500000000      21.173455097126      12.314375000000
      1903    2       22.323000000000      18.411700084457      10.370000000000
      1904    2       23.917500000000      21.173455097126      10.370000000000
      1905    1       27.106500000000      17.491115080234      14.906875000000
      1906    1       25.512000000000      20.252870092903      14.906875000000
      1907    2       27.106500000000      17.491115080234      12.962500000000
      1908    2       25.512000000000      20.252870092903      12.962500000000
      1909    1       25.512000000000      18.411700084457      12.314375000000
      1910    1       27.106500000000      21.173455097126      12.314375000000
      1911    2       25.512000000000      18.411700084457      10.370000000000
      1912    2       27.106500000000      21.173455097126      10.370000000000
      1913    1       30.295500000000      17.491115080234      14.906875000000
      1914    1       28.701000000000      20.252870092903      14.906875000000
      1915    2       30.295500000000      17.491115080234      12.962500000000
      1916    2       28.701000000000      20.252870092903      12.962500000000
      1917    1       28.701000000000      18.411700084457      12.314375000000
      1918    1       30.295500000000      21.173455097126      12.314375000000
      1919    2       28.701000000000      18.411700084457      10.370000000000
      1920    2       30.295500000000      21.173455097126      10.370000000000
      1921    1        1.594500000000      23.014625105571      14.906875000000
      1922    1        0.000000000000      25.776380118240      14.906875000000
      1923    2        1.594500000000      23.014625105571      12.962500000000
      1924    2        0.000000000000      25.776380118240      12.962500000000
      1925    1        0.000000000000      23.935210109794      12.314375000000
      1926    1        1.594500000000      26.696965122463      12.314375000000
      1927    2        0.000000000000      23.935210109794      10.370000000000
      1928    2        1.594500000000      26.696965122463      10.370000000000
      1929    1        4.783500000000      23.014625105571      14.906875000000
      1930    1        3.189000000000      25.776380118240      14.906875000000
      1931    2        4.783500000000      23.014625105571      12.962500000000
      1932    2        3.189000000000      25.776380118240      12.962500000000
      1933    1        3.189000000000      23.935210109794      12.314375000000
      1934    1        4.783500000000      26.696965122463      12.314375000000
      1935    2        3.189000000000      23.935210109794      10.370000000000
      1936    2        4.783500000000      26.696965122463      10.370000000000
      1937    1        7.972500000000      23.014625105571      14.906875000000
      1938    1        6.378000000000      25.776380118240      14.906875000000
      1939    2        7.972500000000      23.014625105571      12.962500000000
      1940    2        6.378000000000      25.776380118240      12.962500000000
      1941    1        6.378000000000      23.935210109794      12.314375000000
      1942    1        7.972500000000      26.696965122463      12.314375000000
      1943    2        6.378000000000      23.935210109794      10.370000000000
      1944    2        7.972500000000      26.696965122463      10.370000000000
      1945    1       11.161500000000      23.014625105571      14.906875000000
      1946    1        9.567000000000      25.776380118240      14.906875000000
      1947    2       11.161500000000      23.014625105571      12.962500000000
      1948    2        9.567000000000      25.776380118240      12.962500000000
      1949    1        9.567000000000      23.935210109794      12.314375000000
      1950    1       11.161500000000      26.696965122463      12.314375000000
      1951    2        9.567000000000      23.935210109794      10.370000000000
      1952    2       11.161500000000      26.696965122463      10.370000000000
      1953    1       14.350500000000      23.014625105571      14.906875000000
      1954    1       12.756000000000      25.776380118240      14.906875000000
      1955    2       14.350500000000      23.014625105571      12.962500000000
      1956    2       12.756000000000      25.776380118240      12.962500000000
      1957    1       12.756000000000      23.935210109794      12.314375000000
      1958    1       14.350500000000      26.696965122463      12.314375000000
      1959    2       12.756000000000      23.935210109794      10.370000000000
      1960    2       14.350500000000      26.696965122463      10.370000000000
      1961    1       17.539500000000      23.014625105571      14.906875000000
      1962    1       15.945000000000      25.776380118240      14.906875000000
      1963    2       17.539500000000      23.014625105571      12.962500000000
      1964    2       15.945000000000      25.776380118240      12.962500000000
      1965    1       15.945000000000      23.935210109794      12.314375000000
      1966    1       17.539500000000      26.696965122463      12.314375000000
      1967    2       15.945000000000      23.935210109794      10.370000000000
      1968    2       17.539500000000      26.696965122463      10.370000000000
      1969    1       20.728500000000      23.014625105571      14.906875000000
      1970    1       19.134000000000      25.776380118240      14.906875000000
      1971    2       20.728500000000      23.014625105571      12.962500000000
      1972    2       19.134000000000      25.776380118240      12.962500000000
      1973    1       19.134000000000      23.935210109794      12.314375000000
      1974    1       20.728500000000      26.696965122463      12.314375000000
      1975    2       19.134000000000      23.935210109794      10.370000000000
      1976    2       20.728500000000      26.696965122463      10.370000000000
      1977    1       23.917500000000      23.014625105571      14.906875000000
      1978    1       22.323000000000      25.776380118240      14.906875000000
      1979    2       23.917500000000      23.014625105571      12.962500000000
      1980    2       22.323000000000      25.776380118240      12.962500000000
      1981    1       22.323000000000      23.935210109794      12.314375000000
      1982    1       23.917500000000      26.696965122463      12.314375000000
      1983    2       22.323000000000      23.935210109794      10.370000000000
      1984    2       23.917500000000      26.696965122463      10.370000000000
      1985    1       27.106500000000      23.014625105571      14.906875000000
      1986    1       25.512000000000      25.776380118240      14.906875000000
      1987    2       27.106500000000      23.014625105571      12.962500000000
      1988    2       25.512000000000      25.776380118240      12.962500000000
      1989    1       25.512000000000      23.935210109794      12.314375000000
      1990    1       27.106500000000      26.696965122463      12.314375000000
      1991    2       25.512000000000      23.935210109794      10.370000000000
      1992    2       27.106500000000      26.696965122463      10.370000000000
      1993    1       30.295500000000      23.014625105571      14.906875000000
      1994    1       28.701000000000      25.776380118240      14.906875000000
      1995    2       30.295500000000      23.014625105571      12.962500000000
      1996    2       28.701000000000      25.776380118240      12.962500000000
      1997    1       28.701000000000      23.935210109794      12.314375000000
      1998    1       30.295500000000      26.696965122463      12.314375000000
      1999    2       28.701000000000      23.935210109794      10.370000000000
      2000    2       30.295500000000      26.696965122463      10.370000000000
      2001    1        1.594500000000      28.538135130909      14.906875000000
      2002    1        0.000000000000      31.299890143577      14.906875000000
      2003    2        1.594500000000      28.538135130909      12.962500000000
      2004    2        0.000000000000      31.299890143577      12.962500000000
      2005    1        0.000000000000      29.458720135131      12.314375000000
      2006    1        1.594500000000      32.220475147800      12.314375000000
      2007    2        0.000000000000      29.458720135131      10.370000000000
      2008    2        1.594500000000      32.220475147800      10.370000000000
      2009    1        4.783500000000      28.538135130909      14.906875000000
      2010    1        3.189000000000      31.299890143577      14.906875000000
      2011    2        4.783500000000      28.538135130909      12.962500000000
      2012    2        3.189000000000      31.299890143577      12.962500000000
      2013    1        3.189000000000      29.458720135131      12.314375000000
      2014    1        4.783500000000      32.220475147800      12.314375000000
      2015    2        3.189000000000      29.458720135131      10.370000000000
      2016    2        4.783500000000      32.220475147800      10.370000000000
      2017    1        7.972500000000      28.538135130909      14.906875000000
      2018    1        6.378000000000      31.299890143577      14.906875000000
      2019    2        7.972500000000      28.538135130909      12.962500000000
      2020    2        6.378000000000      31.299890143577      12.962500000000
      2021    1        6.378000000000      29.458720135131      12.314375000000
      2022    1        7.972500000000      32.220475147800      12.314375000000
      2023    2        6.378000000000      29.458720135131      10.370000000000
      2024    2        7.972500000000      32.220475147800      10.370000000000
      2025    1       11.161500000000      28.538135130909      14.906875000000
      2026    1        9.567000000000      31.299890143577      14.906875000000
      2027    2       11.161500000000      28.538135130909      12.962500000000
      2028    2        9.567000000000      31.299890143577      12.962500000000
      2029    1        9.567000000000      29.458720135131      12.314375000000
      2030    1       11.161500000000      32.220475147800      12.314375000000
      2031    2        9.567000000000      29.458720135131      10.370000000000
      2032    2       11.161500000000      32.220475147800      10.370000000000
      2033    1       14.350500000000      28.538135130909      14.906875000000
      2034    1       12.756000000000      31.299890143577      14.906875000000
      2035    2       14.350500000000      28.538135130909      12.962500000000
      2036    2       12.756000000000      31.299890143577      12.962500000000
      2037    1       12.756000000000      29.458720135131      12.314375000000
      2038    1       14.350500000000      32.220475147800      12.314375000000
      2039    2       12.756000000000      29.458720135131      10.370000000000
      2040    2       14.350500000000      32.220475147800      10.370000000000
      2041    1       17.539500000000      28.538135130909      14.906875000000
      2042    1       15.945000000000      31.299890143577      14.906875000000
      2043    2       17.539500000000      28.538135130909      12.962500000000
      2044    2       15.945000000000      31.299890143577      12.962500000000
      2045    1       15.945000000000      29.458720135131      12.314375000000
      2046    1       17.539500000000      32.220475147800      12.314375000000
      2047    2       15.945000000000      29.458720135131      10.370000000000
      2048    2       17.539500000000      32.220475147800      10.370000000000
      2049    1       20.728500000000      28.538135130909      14.906875000000
      2050    1       19.134000000000      31.299890143577      14.906875000000
      2051    2       20.728500000000      28.538135130909      12.962500000000
      2052    2       19.134000000000      31.299890143577      12.962500000000
      2053    1       19.134000000000      29.458720135131      12.314375000000
      2054    1       20.728500000000      32.220475147800      12.314375000000
      2055    2       19.134000000000      29.458720135131      10.370000000000
      2056    2       20.728500000000      32.220475147800      10.370000000000
      2057    1       23.917500000000      28.538135130909      14.906875000000
      2058    1       22.323000000000      31.299890143577      14.906875000000
      2059    2       23.917500000000      28.538135130909      12.962500000000
      2060    2       22.323000000000      31.299890143577      12.962500000000
      2061    1       22.323000000000      29.458720135131      12.314375000000
      2062    1       23.917500000000      32.220475147800      12.314375000000
      2063    2       22.323000000000      29.458720135131      10.370000000000
      2064    2       23.917500000000      32.220475147800      10.370000000000
      2065    1       27.106500000000      28.538135130909      14.906875000000
      2066    1       25.512000000000      31.299890143577      14.906875000000
      2067    2       27.106500000000      28.538135130909      12.962500000000
      2068    2       25.512000000000      31.299890143577      12.962500000000
      2069    1       25.512000000000      29.458720135131      12.314375000000
      2070    1       27.106500000000      32.220475147800      12.314375000000
      2071    2       25.512000000000      29.458720135131      10.370000000000
      2072    2       27.106500000000      32.220475147800      10.370000000000
      2073    1       30.295500000000      28.538135130909      14.906875000000
      2074    1       28.701000000000      31.299890143577      14.906875000000
      2075    2       30.295500000000      28.538135130909      12.962500000000
      2076    2       28.701000000000      31.299890143577      12.962500000000
      2077    1       28.701000000000      29.458720135131      12.314375000000
      2078    1       30.295500000000      32.220475147800      12.314375000000
      2079    2       28.701000000000      29.458720135131      10.370000000000
      2080    2       30.295500000000      32.220475147800      10.370000000000
      2081    1        1.594500000000      34.061645156246      14.906875000000
      2082    1        0.000000000000      36.823400168914      14.906875000000
      2083    2        1.594500000000      34.061645156246      12.962500000000
      2084    2        0.000000000000      36.823400168914      12.962500000000
      2085    1        0.000000000000      34.982230160469      12.314375000000
      2086    1        1.594500000000      37.743985173137      12.314375000000
      2087    2        0.000000000000      34.982230160469      10.370000000000
      2088    2        1.594500000000      37.743985173137      10.370000000000
      2089    1        4.783500000000      34.061645156246      14.906875000000
      2090    1        3.189000000000      36.823400168914      14.906875000000
      2091    2        4.783500000000      34.061645156246      12.962500000000
      2092    2        3.189000000000      36.823400168914      12.962500000000
      2093    1        3.189000000000      34.982230160469      12.314375000000
      2094    1        4.783500000000      37.743985173137      12.314375000000
      2095    2        3.189000000000      34.982230160469      10.370000000000
      2096    2        4.783500000000      37.743985173137      10.370000000000
      2097    1        7.972500000000      34.061645156246      14.906875000000
      2098    1        6.378000000000      36.823400168914      14.906875000000
      2099    2        7.972500000000      34.061645156246      12.962500000000
      2100    2        6.378000000000      36.823400168914      12.962500000000
      2101    1        6.378000000000      34.982230160469      12.314375000000
      2102    1        7.972500000000      37.743985173137      12.314375000000
      2103    2        6.378000000000      34.982230160469      10.370000000000
      2104    2        7.972500000000      37.743985173137      10.370000000000
      2105    1       11.161500000000      34.061645156246      14.906875000000
      2106    1        9.567000000000      36.823400168914      14.906875000000
      2107    2       11.161500000000      34.061645156246      12.962500000000
      2108    2        9.567000000000      36.823400168914      12.962500000000
      2109    1        9.567000000000      34.982230160469      12.314375000000
      2110    1       11.161500000000      37.743985173137      12.314375000000
      2111    2        9.567000000000      34.982230160469      10.370000000000
      2112    2       11.161500000000      37.743985173137      10.370000000000
      2113    1       14.350500000000      34.061645156246      14.906875000000
      2114    1       12.756000000000      36.823400168914      14.906875000000
      2115    2       14.350500000000      34.061645156246      12.962500000000
      2116    2       12.756000000000      36.823400168914      12.962500000000
      2117    1       12.756000000000      34.982230160469      12.314375000000
      2118    1       14.350500000000      37.743985173137      12.314375000000
      2119    2       12.756000000000      34.982230160469      10.370000000000
      2120    2       14.350500000000      37.743985173137      10.370000000000
      2121    1       17.539500000000      34.061645156246      14.906875000000
      2122    1       15.945000000000      36.823400168914      14.906875000000
      2123    2       17.539500000000      34.061645156246      12.962500000000
      2124    2       15.945000000000      36.823400168914      12.962500000000
      2125    1       15.945000000000      34.982230160469      12.314375000000
      2126    1       17.539500000000      37.743985173137      12.314375000000
      2127    2       15.945000000000      34.982230160469      10.370000000000
      2128    2       17.539500000000      37.743985173137      10.370000000000
      2129    1       20.728500000000      34.061645156246      14.906875000000
      2130    1       19.134000000000      36.823400168914      14.906875000000
      2131    2       20.728500000000      34.061645156246      12.962500000000
      2132    2       19.134000000000      36.823400168914      12.962500000000
      2133    1       19.134000000000      34.982230160469      12.314375000000
      2134    1       20.728500000000      37.743985173137      12.314375000000
      2135    2       19.134000000000      34.982230160469      10.370000000000
      2136    2       20.728500000000      37.743985173137      10.370000000000
      2137    1       23.917500000000      34.061645156246      14.906875000000
      2138    1       22.323000000000      36.823400168914      14.906875000000
      2139    2       23.917500000000      34.061645156246      12.962500000000
      2140    2       22.323000000000      36.823400168914      12.962500000000
      2141    1       22.323000000000      34.982230160469      12.314375000000
      2142    1       23.917500000000      37.743985173137      12.314375000000
      2143    2       22.323000000000      34.982230160469      10.370000000000
      2144    2       23.917500000000      37.743985173137      10.370000000000
      2145    1       27.106500000000      34.061645156246      14.906875000000
      2146    1       25.512000000000      36.823400168914      14.906875000000
      2147    2       27.106500000000      34.061645156246      12.962500000000
      2148    2       25.512000000000      36.823400168914      12.962500000000
      2149    1       25.512000000000      34.982230160469      12.314375000000
      2150    1       27.106500000000      37.743985173137      12.314375000000
      2151    2       25.512000000000      34.982230160469      10.370000000000
      2152    2       27.106500000000      37.743985173137      10.370000000000
      2153    1       30.295500000000      34.061645156246      14.906875000000
      2154    1       28.701000000000      36.823400168914      14.906875000000
      2155    2       30.295500000000      34.061645156246      12.962500000000
      2156    2       28.701000000000      36.823400168914      12.962500000000
      2157    1       28.701000000000      34.982230160469      12.314375000000
      2158    1       30.295500000000      37.743985173137      12.314375000000
      2159    2       28.701000000000      34.982230160469      10.370000000000
      2160    2       30.295500000000      37.743985173137      10.370000000000
      2161    1        1.594500000000      39.585155181583      14.906875000000
      2162    1        0.000000000000      42.346910194251      14.906875000000
      2163    2        1.594500000000      39.585155181583      12.962500000000
      2164    2        0.000000000000      42.346910194251      12.962500000000
      2165    1        0.000000000000      40.505740185806      12.314375000000
      2166    1        1.594500000000      43.267495198474      12.314375000000
      2167    2        0.000000000000      40.505740185806      10.370000000000
      2168    2        1.594500000000      43.267495198474      10.370000000000
      2169    1        4.783500000000      39.585155181583      14.906875000000
      2170    1        3.189000000000      42.346910194251      14.906875000000
      2171    2        4.783500000000      39.585155181583      12.962500000000
      2172    2        3.189000000000      42.346910194251      12.962500000000
      2173    1        3.189000000000      40.505740185806      12.314375000000
      2174    1        4.783500000000      43.267495198474      12.314375000000
      2175    2        3.189000000000      40.505740185806      10.370000000000
      2176    2        4.783500000000      43.267495198474      10.370000000000
      2177    1        7.972500000000      39.585155181583      14.906875000000
      2178    1        6.378000000000      42.346910194251      14.906875000000
      2179    2        7.972500000000      39.585155181583      12.962500000000
      2180    2        6.378000000000      42.346910194251      12.962500000000
      2181    1        6.378000000000      40.505740185806      12.314375000000
      2182    1        7.972500000000      43.267495198474      12.314375000000
      2183    2        6.378000000000      40.505740185806      10.370000000000
      2184    2        7.972500000000      43.267495198474      10.370000000000
      2185    1       11.161500000000      39.585155181583      14.906875000000
      2186    1        9.567000000000      42.346910194251      14.906875000000
      2187    2       11.161500000000      39.585155181583      12.962500000000
      2188    2        9.567000000000      42.346910194251      12.962500000000
      2189    1        9.567000000000      40.505740185806      12.314375000000
      2190    1       11.161500000000      43.267495198474      12.314375000000
      2191    2        9.567000000000      40.505740185806      10.370000000000
      2192    2       11.161500000000      43.267495198474      10.370000000000
      2193    1       14.350500000000      39.585155181583      14.906875000000
      2194    1       12.756000000000      42.346910194251      14.906875000000
      2195    2       14.350500000000      39.585155181583      12.962500000000
      2196    2       12.756000000000      42.346910194251      12.962500000000
      2197    1       12.756000000000      40.505740185806      12.314375000000
      2198    1       14.350500000000      43.267495198474      12.314375000000
      2199    2       12.756000000000      40.505740185806      10.370000000000
      2200    2       14.350500000000      43.267495198474      10.370000000000
      2201    1       17.539500000000      39.585155181583      14.906875000000
      2202    1       15.945000000000      42.346910194251      14.906875000000
      2203    2       17.539500000000      39.585155181583      12.962500000000
      2204    2       15.945000000000      42.346910194251      12.962500000000
      2205    1       15.945000000000      40.505740185806      12.314375000000
      2206    1       17.539500000000      43.267495198474      12.314375000000
      2207    2       15.945000000000      40.505740185806      10.370000000000
      2208    2       17.539500000000      43.267495198474      10.370000000000
      2209    1       20.728500000000      39.585155181583      14.906875000000
      2210    1       19.134000000000      42.346910194251      14.906875000000
      2211    2       20.728500000000      39.585155181583      12.962500000000
      2212    2       19.134000000000      42.346910194251      12.962500000000
      2213    1       19.134000000000      40.505740185806      12.314375000000
      2214    1       20.728500000000      43.267495198474      12.314375000000
      2215    2       19.134000000000      40.505740185806      10.370000000000
      2216    2       20.728500000000      43.267495198474      10.370000000000
      2217    1       23.917500000000      39.585155181583      14.906875000000
      2218    1       22.323000000000      42.346910194251      14.906875000000
      2219    2       23.917500000000      39.585155181583      12.962500000000
      2220    2       22.323000000000      42.346910194251      12.962500000000
      2221    1       22.323000000000      40.505740185806      12.314375000000
      2222    1       23.917500000000      43.267495198474      12.314375000000
      2223    2       22.323000000000      40.505740185806      10.370000000000
      2224    2       23.917500000000      43.267495198474      10.370000000000
      2225    1       27.106500000000      39.585155181583      14.906875000000
      2226    1       25.512000000000      42.346910194251      14.906875000000
      2227    2       27.106500000000      39.585155181583      12.962500000000
      2228    2       25.512000000000      42.346910194251      12.962500000000
      2229    1       25.512000000000      40.505740185806      12.314375000000
      2230    1       27.106500000000      43.267495198474      12.314375000000
      2231    2       25.512000000000      40.505740185806      10.370000000000
      2232    2       27.106500000000      43.267495198474      10.370000000000
      2233    1       30.295500000000      39.585155181583      14.906875000000
      2234    1       28.701000000000      42.346910194251      14.906875000000
      2235    2       30.295500000000      39.585155181583      12.962500000000
      2236    2       28.701000000000      42.346910194251      12.962500000000
      2237    1       28.701000000000      40.505740185806      12.314375000000
      2238    1       30.295500000000      43.267495198474      12.314375000000
      2239    2       28.701000000000      40.505740185806      10.370000000000
      2240    2       30.295500000000      43.267495198474      10.370000000000
      2241    1        1.594500000000      45.108665206920      14.906875000000
      2242    1        0.000000000000      47.870420219589      14.906875000000
      2243    2        1.594500000000      45.108665206920      12.962500000000
      2244    2        0.000000000000      47.870420219589      12.962500000000
      2245    1        0.000000000000      46.029250211143      12.314375000000
      2246    1        1.594500000000      48.791005223811      12.314375000000
      2247    2        0.000000000000      46.029250211143      10.370000000000
      2248    2        1.594500000000      48.791005223811      10.370000000000
      2249    1        4.783500000000      45.108665206920      14.906875000000
      2250    1        3.189000000000      47.870420219589      14.906875000000
      2251    2        4.783500000000      45.108665206920      12.962500000000
      2252    2        3.189000000000      47.870420219589      12.962500000000
      2253    1        3.189000000000      46.029250211143      12.314375000000
      2254    1        4.783500000000      48.791005223811      12.314375000000
      2255    2        3.189000000000      46.029250211143      10.370000000000
      2256    2        4.783500000000      48.791005223811      10.370000000000
      2257    1        7.972500000000      45.108665206920      14.906875000000
      2258    1        6.378000000000      47.870420219589      14.906875000000
      2259    2        7.972500000000      45.108665206920      12.962500000000
      2260    2        6.378000000000      47.870420219589      12.962500000000
      2261    1        6.378000000000      46.029250211143      12.314375000000
      2262    1        7.972500000000      48.791005223811      12.314375000000
      2263    2        6.378000000000      46.029250211143      10.370000000000
      2264    2        7.972500000000      48.791005223811      10.370000000000
      2265    1       11.161500000000      45.108665206920      14.906875000000
      2266    1        9.567000000000      47.870420219589      14.906875000000
      2267    2       11.161500000000      45.108665206920      12.962500000000
      2268    2        9.567000000000      47.870420219589      12.962500000000
      2269    1        9.567000000000      46.029250211143      12.314375000000
      2270    1       11.161500000000      48.791005223811      12.314375000000
      2271    2        9.567000000000      46.029250211143      10.370000000000
      2272    2       11.161500000000      48.791005223811      10.370000000000
      2273    1       14.350500000000      45.108665206920      14.906875000000
      2274    1       12.756000000000      47.870420219589      14.906875000000
      2275    2       14.350500000000      45.108665206920      12.962500000000
      2276    2       12.756000000000      47.870420219589      12.962500000000
      2277    1       12.756000000000      46.029250211143      12.314375000000
      2278    1       14.350500000000      48.791005223811      12.314375000000
      2279    2       12.756000000000      46.029250211143      10.370000000000
      2280    2       14.350500000000      48.791005223811      10.370000000000
      2281    1       17.539500000000      45.108665206920      14.906875000000
      2282    1       15.945000000000      47.870420219589      14.906875000000
      2283    2       17.539500000000      45.108665206920      12.962500000000
      2284    2       15.945000000000      47.870420219589      12.962500000000
      2285    1       15.945000000000      46.029250211143      12.314375000000
      2286    1       17.539500000000      48.791005223811      12.314375000000
      2287    2       15.945000000000      46.029250211143      10.370000000000
      2288    2       17.539500000000      48.791005223811      10.370000000000
      2289    1       20.728500000000      45.108665206920      14.906875000000
      2290    1       19.134000000000      47.870420219589      14.906875000000
      2291    2       20.728500000000      45.108665206920      12.962500000000
      2292    2       19.134000000000      47.870420219589      12.962500000000
      2293    1       19.134000000000      46.029250211143      12.314375000000
      2294    1       20.728500000000      48.791005223811      12.314375000000
      2295    2       19.134000000000      46.029250211143      10.370000000000
      2296    2       20.728500000000      48.791005223811      10.370000000000
      2297    1       23.917500000000      45.108665206920      14.906875000000
      2298    1       22.323000000000      47.870420219589      14.906875000000
      2299    2       23.917500000000      45.108665206920      12.962500000000
      2300    2       22.323000000000      47.870420219589      12.962500000000
      2301    1       22.323000000000      46.029250211143      12.314375000000
      2302    1       23.917500000000      48.791005223811      12.314375000000
      2303    2       22.323000000000      46.029250211143      10.370000000000
      2304    2       23.917500000000      48.791005223811      10.370000000000
      2305    1       27.106500000000      45.108665206920      14.906875000000
      2306    1       25.512000000000      47.870420219589      14.906875000000
      2307    2       27.106500000000      45.108665206920      12.962500000000
      2308    2       25.512000000000      47.870420219589      12.962500000000
      2309    1       25.512000000000      46.029250211143      12.314375000000
      2310    1       27.106500000000      48.791005223811      12.314375000000
      2311    2       25.512000000000      46.029250211143      10.370000000000
      2312    2       27.106500000000      48.791005223811      10.370000000000
      2313    1       30.295500000000      45.108665206920      14.906875000000
      2314    1       28.701000000000      47.870420219589      14.906875000000
      2315    2       30.295500000000      45.108665206920      12.962500000000
      2316    2       28.701000000000      47.870420219589      12.962500000000
      2317    1       28.701000000000      46.029250211143      12.314375000000
      2318    1       30.295500000000      48.791005223811      12.314375000000
      2319    2       28.701000000000      46.029250211143      10.370000000000
      2320    2       30.295500000000      48.791005223811      10.370000000000
      2321    1        1.594500000000      50.632175232257      14.906875000000
      2322    1        0.000000000000      53.393930244926      14.906875000000
      2323    2        1.594500000000      50.632175232257      12.962500000000
      2324    2        0.000000000000      53.393930244926      12.962500000000
      2325    1        0.000000000000      51.552760236480      12.314375000000
      2326    1        1.594500000000      54.314515249149      12.314375000000
      2327    2        0.000000000000      51.552760236480      10.370000000000
      2328    2        1.594500000000      54.314515249149      10.370000000000
      2329    1        4.783500000000      50.632175232257      14.906875000000
      2330    1        3.189000000000      53.393930244926      14.906875000000
      2331    2        4.783500000000      50.632175232257      12.962500000000
      2332    2        3.189000000000      53.393930244926      12.962500000000
      2333    1        3.189000000000      51.552760236480      12.314375000000
      2334    1        4.783500000000      54.314515249149      12.314375000000
      2335    2        3.189000000000      51.552760236480      10.370000000000
      2336    2        4.783500000000      54.314515249149      10.370000000000
      2337    1        7.972500000000      50.632175232257      14.906875000000
      2338    1        6.378000000000      53.393930244926      14.906875000000
      2339    2        7.972500000000      50.632175232257      12.962500000000
      2340    2        6.378000000000      53.393930244926      12.962500000000
      2341    1        6.378000000000      51.552760236480      12.314375000000
      2342    1        7.972500000000      54.314515249149      12.314375000000
      2343    2        6.378000000000      51.552760236480      10.370000000000
      2344    2        7.972500000000      54.314515249149      10.370000000000
      2345    1       11.161500000000      50.632175232257      14.906875000000
      2346    1        9.567000000000      53.393930244926      14.906875000000
      2347    2       11.161500000000      50.632175232257      12.962500000000
      2348    2        9.567000000000      53.393930244926      12.962500000000
      2349    1        9.567000000000      51.552760236480      12.314375000000
      2350    1       11.161500000000      54.314515249149      12.314375000000
      2351    2        9.567000000000      51.552760236480      10.370000000000
      2352    2       11.161500000000      54.314515249149      10.370000000000
      2353    1       14.350500000000      50.632175232257      14.906875000000
      2354    1       12.756000000000      53.393930244926      14.906875000000
      2355    2       14.350500000000      50.632175232257      12.962500000000
      2356    2       12.756000000000      53.393930244926      12.962500000000
      2357    1       12.756000000000      51.552760236480      12.314375000000
      2358    1       14.350500000000      54.314515249149      12.314375000000
      2359    2       12.756000000000      51.552760236480      10.370000000000
      2360    2       14.350500000000      54.314515249149      10.370000000000
      2361    1       17.539500000000      50.632175232257      14.906875000000
      2362    1       15.945000000000      53.393930244926      14.906875000000
      2363    2       17.539500000000      50.632175232257      12.962500000000
      2364    2       15.945000000000      53.393930244926      12.962500000000
      2365    1       15.945000000000      51.552760236480      12.314375000000
      2366    1       17.539500000000      54.314515249149      12.314375000000
      2367    2       15.945000000000      51.552760236480      10.370000000000
      2368    2       17.539500000000      54.314515249149      10.370000000000
      2369    1       20.728500000000      50.632175232257      14.906875000000
      2370    1       19.134000000000      53.393930244926      14.906875000000
      2371    2       20.728500000000      50.632175232257      12.962500000000
      2372    2       19.134000000000      53.393930244926      12.962500000000
      2373    1       19.134000000000      51.552760236480      12.314375000000
      2374    1       20.728500000000      54.314515249149      12.314375000000
      2375    2       19.134000000000      51.552760236480      10.370000000000
      2376    2       20.728500000000      54.314515249149      10.370000000000
      2377    1       23.917500000000      50.632175232257      14.906875000000
      2378    1       22.323000000000      53.393930244926      14.906875000000
      2379    2       23.917500000000      50.632175232257      12.962500000000
      2380    2       22.323000000000      53.393930244926      12.962500000000
      2381    1       22.323000000000      51.552760236480      12.314375000000
      2382    1       23.917500000000      54.314515249149      12.314375000000
      2383    2       22.323000000000      51.552760236480      10.370000000000
      2384    2       23.917500000000      54.314515249149      10.370000000000
      2385    1       27.106500000000      50.632175232257      14.906875000000
      2386    1       25.512000000000      53.393930244926      14.906875000000
      2387    2       27.106500000000      50.632175232257      12.962500000000
      2388    2       25.512000000000      53.393930244926      12.962500000000
      2389    1       25.512000000000      51.552760236480      12.314375000000
      2390    1       27.106500000000      54.314515249149      12.314375000000
      2391    2       25.512000000000      51.552760236480      10.370000000000
      2392    2       27.106500000000      54.314515249149      10.370000000000
      2393    1       30.295500000000      50.632175232257      14.906875000000
      2394    1       28.701000000000      53.393930244926      14.906875000000
      2395    2       30.295500000000      50.632175232257      12.962500000000
      2396    2       28.701000000000      53.393930244926      12.962500000000
      2397    1       28.701000000000      51.552760236480      12.314375000000
      2398    1       30.295500000000      54.314515249149      12.314375000000
      2399    2       28.701000000000      51.552760236480      10.370000000000
      2400    2       30.295500000000      54.314515249149      10.370000000000
      2401    1        1.594500000000       0.920585004223      20.091875000000
      2402    1        0.000000000000       3.682340016891      20.091875000000
      2403    2        1.594500000000       0.920585004223      18.147500000000
      2404    2        0.000000000000       3.682340016891      18.147500000000
      2405    1        0.000000000000       1.841170008446      17.499375000000
      2406    1        1.594500000000       4.602925021114      17.499375000000
      2407    2        0.000000000000       1.841170008446      15.555000000000
      2408    2        1.594500000000       4.602925021114      15.555000000000
      2409    1        4.783500000000       0.920585004223      20.091875000000
      2410    1        3.189000000000       3.682340016891      20.091875000000
      2411    2        4.783500000000       0.920585004223      18.147500000000
      2412    2        3.189000000000       3.682340016891      18.147500000000
      2413    1        3.189000000000       1.841170008446      17.499375000000
      2414    1        4.783500000000       4.602925021114      17.499375000000
      2415    2        3.189000000000       1.841170008446      15.555000000000
      2416    2        4.783500000000       4.602925021114      15.555000000000
      2417    1        7.972500000000       0.920585004223      20.091875000000
      2418    1        6.378000000000       3.682340016891      20.091875000000
      2419    2        7.972500000000       0.920585004223      18.147500000000
      2420    2        6.378000000000       3.682340016891      18.147500000000
      2421    1        6.378000000000       1.841170008446      17.499375000000
      2422    1        7.972500000000       4.602925021114      17.499375000000
      2423    2        6.378000000000       1.841170008446      15.555000000000
      2424    2        7.972500000000       4.602925021114      15.555000000000
      2425    1       11.161500000000       0.920585004223      20.091875000000
      2426    1        9.567000000000       3.682340016891      20.091875000000
      2427    2       11.161500000000       0.920585004223      18.147500000000
      2428    2        9.567000000000       3.682340016891      18.147500000000
      2429    1        9.567000000000       1.841170008446      17.499375000000
      2430    1       11.161500000000       4.602925021114      17.499375000000
      2431    2        9.567000000000       1.841170008446      15.555000000000
      2432    2       11.161500000000       4.602925021114      15.555000000000
      2433    1       14.350500000000       0.920585004223      20.091875000000
      2434    1       12.756000000000       3.682340016891      20.091875000000
      2435    2       14.350500000000       0.920585004223      18.147500000000
      2436    2       12.756000000000       3.682340016891      18.147500000000
      2437    1       12.756000000000       1.841170008446      17.499375000000
      2438    1       14.350500000000       4.602925021114      17.499375000000
      2439    2       12.756000000000       1.841170008446      15.555000000000
      2440    2       14.350500000000       4.602925021114      15.555000000000
      2441    1       17.539500000000       0.920585004223      20.091875000000
      2442    1       15.945000000000       3.682340016891      20.091875000000
      2443    2       17.539500000000       0.920585004223      18.147500000000
      2444    2       15.945000000000       3.682340016891      18.147500000000
      2445    1       15.945000000000       1.841170008446      17.499375000000
      2446    1       17.539500000000       4.602925021114      17.499375000000
      2447    2       15.945000000000       1.841170008446      15.555000000000
      2448    2       17.539500000000       4.602925021114      15.555000000000
      2449    1       20.728500000000       0.920585004223      20.091875000000
      2450    1       19.134000000000       3.682340016891      20.091875000000
      2451    2       20.728500000000       0.920585004223      18.147500000000
      2452    2       19.134000000000       3.682340016891      18.147500000000
      2453    1       19.134000000000       1.841170008446      17.499375000000
      2454    1       20.728500000000       4.602925021114      17.499375000000
      2455    2       19.134000000000       1.841170008446      15.555000000000
      2456    2       20.728500000000       4.602925021114      15.555000000000
      2457    1       23.917500000000       0.920585004223      20.091875000000
      2458    1       22.323000000000       3.682340016891      20.091875000000
      2459    2       23.917500000000       0.920585004223      18.147500000000
      2460    2       22.323000000000       3.682340016891      18.147500000000
      2461    1       22.323000000000       1.841170008446      17.499375000000
      2462    1       23.917500000000       4.602925021114      17.499375000000
      2463    2       22.323000000000       1.841170008446      15.555000000000
      2464    2       23.917500000000       4.602925021114      15.555000000000
      2465    1       27.106500000000       0.920585004223      20.091875000000
      2466    1       25.512000000000       3.682340016891      20.091875000000
      2467    2       27.106500000000       0.920585004223      18.147500000000
      2468    2       25.512000000000       3.682340016891      18.147500000000
      2469    1       25.512000000000       1.841170008446      17.499375000000
      2470    1       27.106500000000       4.602925021114      17.499375000000
      2471    2       25.512000000000       1.841170008446      15.555000000000
      2472    2       27.106500000000       4.602925021114      15.555000000000
      2473    1       30.295500000000       0.920585004223      20.091875000000
      2474    1       28.701000000000       3.682340016891      20.091875000000
      2475    2       30.295500000000       0.920585004223      18.147500000000
      2476    2       28.701000000000       3.682340016891      18.147500000000
      2477    1       28.701000000000       1.841170008446      17.499375000000
      2478    1       30.295500000000       4.602925021114      17.499375000000
      2479    2       28.701000000000       1.841170008446      15.555000000000
      2480    2       30.295500000000       4.602925021114      15.555000000000
      2481    1        1.594500000000       6.444095029560      20.091875000000
      2482    1        0.000000000000       9.205850042229      20.091875000000
      2483    2        1.594500000000       6.444095029560      18.147500000000
      2484    2        0.000000000000       9.205850042229      18.147500000000
      2485    1        0.000000000000       7.364680033783      17.499375000000
      2486    1        1.594500000000      10.126435046451      17.499375000000
      2487    2        0.000000000000       7.364680033783      15.555000000000
      2488    2        1.594500000000      10.126435046451      15.555000000000
      2489    1        4.783500000000       6.444095029560      20.091875000000
      2490    1        3.189000000000       9.205850042229      20.091875000000
      2491    2        4.783500000000       6.444095029560      18.147500000000
      2492    2        3.189000000000       9.205850042229      18.147500000000
      2493    1        3.189000000000       7.364680033783      17.499375000000
      2494    1        4.783500000000      10.126435046451      17.499375000000
      2495    2        3.189000000000       7.364680033783      15.555000000000
      2496    2        4.783500000000      10.126435046451      15.555000000000
      2497    1        7.972500000000       6.444095029560      20.091875000000
      2498    1        6.378000000000       9.205850042229      20.091875000000
      2499    2        7.972500000000       6.444095029560      18.147500000000
      2500    2        6.378000000000       9.205850042229      18.147500000000
      2501    1        6.378000000000       7.364680033783      17.499375000000
      2502    1        7.972500000000      10.126435046451      17.499375000000
      2503    2        6.378000000000       7.364680033783      15.555000000000
      2504    2        7.972500000000      10.126435046451      15.555000000000
      2505    1       11.161500000000       6.444095029560      20.091875000000
      2506    1        9.567000000000       9.205850042229      20.091875000000
      2507    2       11.161500000000       6.444095029560      18.147500000000
      2508    2        9.567000000000       9.205850042229      18.147500000000
      2509    1        9.567000000000       7.364680033783      17.499375000000
      2510    1       11.161500000000      10.126435046451      17.499375000000
      2511    2        9.567000000000       7.364680033783      15.555000000000
      2512    2       11.161500000000      10.126435046451      15.555000000000
      2513    1       14.350500000000       6.444095029560      20.091875000000
      2514    1       12.756000000000       9.205850042229      20.091875000000
      2515    2       14.350500000000       6.444095029560      18.147500000000
      2516    2       12.756000000000       9.205850042229      18.147500000000
      2517    1       12.756000000000       7.364680033783      17.499375000000
      2518    1       14.350500000000      10.126435046451      17.499375000000
      2519    2       12.756000000000       7.364680033783      15.555000000000
      2520    2       14.350500000000      10.126435046451      15.555000000000
      2521    1       17.539500000000       6.444095029560      20.091875000000
      2522    1       15.945000000000       9.205850042229      20.091875000000
      2523    2       17.539500000000       6.444095029560      18.147500000000
      2524    2       15.945000000000       9.205850042229      18.147500000000
      2525    1       15.945000000000       7.364680033783      17.499375000000
      2526    1       17.539500000000      10.126435046451      17.499375000000
      2527    2       15.945000000000       7.364680033783      15.555000000000
      2528    2       17.539500000000      10.126435046451      15.555000000000
      2529    1       20.728500000000       6.444095029560      20.091875000000
      2530    1       19.134000000000       9.205850042229      20.091875000000
      2531    2       20.728500000000       6.444095029560      18.147500000000
      2532    2       19.134000000000       9.205850042229      18.147500000000
      2533    1       19.134000000000       7.364680033783      17.499375000000
      2534    1       20.728500000000      10.126435046451      17.499375000000
      2535    2       19.134000000000       7.364680033783      15.555000000000
      2536    2       20.728500000000      10.126435046451      15.555000000000
      2537    1       23.917500000000       6.444095029560      20.091875000000
      2538    1       22.323000000000       9.205850042229      20.091875000000
      2539    2       23.917500000000       6.444095029560      18.147500000000
      2540    2       22.323000000000       9.205850042229      18.147500000000
      2541    1       22.323000000000       7.364680033783      17.499375000000
      2542    1       23.917500000000      10.126435046451      17.499375000000
      2543    2       22.323000000000       7.364680033783      15.555000000000
      2544    2       23.917500000000      10.126435046451      15.555000000000
      2545    1       27.106500000000       6.444095029560      20.091875000000
      2546    1       25.512000000000       9.205850042229      20.091875000000
      2547    2       27.106500000000       6.444095029560      18.147500000000
      2548    2       25.512000000000       9.205850042229      18.147500000000
      2549    1       25.512000000000       7.364680033783      17.499375000000
      2550    1       27.106500000000      10.126435046451      17.499375000000
      2551    2       25.512000000000       7.364680033783      15.555000000000
      2552    2       27.106500000000      10.126435046451      15.555000000000
      2553    1       30.295500000000       6.444095029560      20.091875000000
      2554    1       28.701000000000       9.205850042229      20.091875000000
      2555    2       30.295500000000       6.444095029560      18.147500000000
      2556    2       28.701000000000       9.205850042229      18.147500000000
      2557    1       28.701000000000       7.364680033783      17.499375000000
      2558    1       30.295500000000      10.126435046451      17.499375000000
      2559    2       28.701000000000       7.364680033783      15.555000000000
      2560    2       30.295500000000      10.126435046451      15.555000000000
      2561    1        1.594500000000      11.967605054897      20.091875000000
      2562    1        0.000000000000      14.729360067566      20.091875000000
      2563    2        1.594500000000      11.967605054897      18.147500000000
      2564    2        0.000000000000      14.729360067566      18.147500000000
      2565    1        0.000000000000      12.888190059120      17.499375000000
      2566    1        1.594500000000      15.649945071789      17.499375000000
      2567    2        0.000000000000      12.888190059120      15.555000000000
      2568    2        1.594500000000      15.649945071789      15.555000000000
      2569    1        4.783500000000      11.967605054897      20.091875000000
      2570    1        3.189000000000      14.729360067566      20.091875000000
      2571    2        4.783500000000      11.967605054897      18.147500000000
      2572    2        3.189000000000      14.729360067566      18.147500000000
      2573    1        3.189000000000      12.888190059120      17.499375000000
      2574    1        4.783500000000      15.649945071789      17.499375000000
      2575    2        3.189000000000      12.888190059120      15.555000000000
      2576    2        4.783500000000      15.649945071789      15.555000000000
      2577    1        7.972500000000      11.967605054897      20.091875000000
      2578    1        6.378000000000      14.729360067566      20.091875000000
      2579    2        7.972500000000      11.967605054897      18.147500000000
      2580    2        6.378000000000      14.729360067566      18.147500000000
      2581    1        6.378000000000      12.888190059120      17.499375000000
      2582    1        7.972500000000      15.649945071789      17.499375000000
      2583    2        6.378000000000      12.888190059120      15.555000000000
      2584    2        7.972500000000      15.649945071789      15.555000000000
      2585    1       11.161500000000      11.967605054897      20.091875000000
      2586    1        9.567000000000      14.729360067566      20.091875000000
      2587    2       11.161500000000      11.967605054897      18.147500000000
      2588    2        9.567000000000      14.729360067566      18.147500000000
      2589    1        9.567000000000      12.888190059120      17.499375000000
      2590    1       11.161500000000      15.649945071789      17.499375000000
      2591    2        9.567000000000      12.888190059120      15.555000000000
      2592    2       11.161500000000      15.649945071789      15.555000000000
      2593    1       14.350500000000      11.967605054897      20.091875000000
      2594    1       12.756000000000      14.729360067566      20.091875000000
      2595    2       14.350500000000      11.967605054897      18.147500000000
      2596    2       12.756000000000      14.729360067566      18.147500000000
      2597    1       12.756000000000      12.888190059120      17.499375000000
      2598    1       14.350500000000      15.649945071789      17.499375000000
      2599    2       12.756000000000      12.888190059120      15.555000000000
      2600    2       14.350500000000      15.649945071789      15.555000000000
      2601    1       17.539500000000      11.967605054897      20.091875000000
      2602    1       15.945000000000      14.729360067566      20.091875000000
      2603    2       17.539500000000      11.967605054897      18.147500000000
      2604    2       15.945000000000      14.729360067566      18.147500000000
      2605    1       15.945000000000      12.888190059120      17.499375000000
      2606    1       17.539500000000      15.649945071789      17.499375000000
      2607    2       15.945000000000      12.888190059120      15.555000000000
      2608    2       17.539500000000      15.649945071789      15.555000000000
      2609    1       20.728500000000      11.967605054897      20.091875000000
      2610    1       19.134000000000      14.729360067566      20.091875000000
      2611    2       20.728500000000      11.967605054897      18.147500000000
      2612    2       19.134000000000      14.729360067566      18.147500000000
      2613    1       19.134000000000      12.888190059120      17.499375000000
      2614    1       20.728500000000      15.649945071789      17.499375000000
      2615    2       19.134000000000      12.888190059120      15.555000000000
      2616    2       20.728500000000      15.649945071789      15.555000000000
      2617    1       23.917500000000      11.967605054897      20.091875000000
      2618    1       22.323000000000      14.729360067566      20.091875000000
      2619    2       23.917500000000      11.967605054897      18.147500000000
      2620    2       22.323000000000      14.729360067566      18.147500000000
      2621    1       22.323000000000      12.888190059120      17.499375000000
      2622    1       23.917500000000      15.649945071789      17.499375000000
      2623    2       22.323000000000      12.888190059120      15.555000000000
      2624    2       23.917500000000      15.649945071789      15.555000000000
      2625    1       27.106500000000      11.967605054897      20.091875000000
      2626    1       25.512000000000      14.729360067566      20.091875000000
      2627    2       27.106500000000      11.967605054897      18.147500000000
      2628    2       25.512000000000      14.729360067566      18.147500000000
      2629    1       25.512000000000      12.888190059120      17.499375000000
      2630    1       27.106500000000      15.649945071789      17.499375000000
      2631    2       25.512000000000      12.888190059120      15.555000000000
      2632    2       27.106500000000      15.649945071789      15.555000000000
      2633    1       30.295500000000      11.967605054897      20.091875000000
      2634    1       28.701000000000      14.729360067566      20.091875000000
      2635    2       30.295500000000      11.967605054897      18.147500000000
      2636    2       28.701000000000      14.729360067566      18.147500000000
      2637    1       28.701000000000      12.888190059120      17.499375000000
      2638    1       30.295500000000      15.649945071789      17.499375000000
      2639    2       28.701000000000      12.888190059120      15.555000000000
      2640    2       30.295500000000      15.649945071789      15.555000000000
      2641    1        1.594500000000      17.491115080234      20.091875000000
      2642    1        0.000000000000      20.252870092903      20.091875000000
      2643    2        1.594500000000      17.491115080234      18.147500000000
      2644    2        0.000000000000      20.252870092903      18.147500000000
      2645    1        0.000000000000      18.411700084457      17.499375000000
      2646    1        1.594500000000      21.173455097126      17.499375000000
      2647    2        0.000000000000      18.411700084457      15.555000000000
      2648    2        1.594500000000      21.173455097126      15.555000000000
      2649    1        4.783500000000      17.491115080234      20.091875000000
      2650    1        3.189000000000      20.252870092903      20.091875000000
      2651    2        4.783500000000      17.491115080234      18.147500000000
      2652    2        3.189000000000      20.252870092903      18.147500000000
      2653    1        3.189000000000      18.411700084457      17.499375000000
      2654    1        4.783500000000      21.173455097126      17.499375000000
      2655    2        3.189000000000      18.411700084457      15.555000000000
      2656    2        4.783500000000      21.173455097126      15.555000000000
      2657    1        7.972500000000      17.491115080234      20.091875000000
      2658    1        6.378000000000      20.252870092903      20.091875000000
      2659    2        7.972500000000      17.491115080234      18.147500000000
      2660    2        6.378000000000      20.252870092903      18.147500000000
      2661    1        6.378000000000      18.411700084457      17.499375000000
      2662    1        7.972500000000      21.173455097126      17.499375000000
      2663    2        6.378000000000      18.411700084457      15.555000000000
      2664    2        7.972500000000      21.173455097126      15.555000000000
      2665    1       11.161500000000      17.491115080234      20.091875000000
      2666    1        9.567000000000      20.252870092903      20.091875000000
      2667    2       11.161500000000      17.491115080234      18.147500000000
      2668    2        9.567000000000      20.252870092903      18.147500000000
      2669    1        9.567000000000      18.411700084457      17.499375000000
      2670    1       11.161500000000      21.173455097126      17.499375000000
      2671    2        9.567000000000      18.411700084457      15.555000000000
      2672    2       11.161500000000      21.173455097126      15.555000000000
      2673    1       14.350500000000      17.491115080234      20.091875000000
      2674    1       12.756000000000      20.252870092903      20.091875000000
      2675    2       14.350500000000      17.491115080234      18.147500000000
      2676    2       12.756000000000      20.252870092903      18.147500000000
      2677    1       12.756000000000      18.411700084457      17.499375000000
      2678    1       14.350500000000      21.173455097126      17.499375000000
      2679    2       12.756000000000      18.411700084457      15.555000000000
      2680    2       14.350500000000      21.173455097126      15.555000000000
      2681    1       17.539500000000      17.491115080234      20.091875000000
      2682    1       15.945000000000      20.252870092903      20.091875000000
      2683    2       17.539500000000      17.491115080234      18.147500000000
      2684    2       15.945000000000      20.252870092903      18.147500000000
      2685    1       15.945000000000      18.411700084457      17.499375000000
      2686    1       17.539500000000      21.173455097126      17.499375000000
      2687    2       15.945000000000      18.411700084457      15.555000000000
      2688    2       17.539500000000      21.173455097126      15.555000000000
      2689    1       20.728500000000      17.491115080234      20.091875000000
      2690    1       19.134000000000      20.252870092903      20.091875000000
      2691    2       20.728500000000      17.491115080234      18.147500000000
      2692    2       19.134000000000      20.252870092903      18.147500000000
      2693    1       19.134000000000      18.411700084457      17.499375000000
      2694    1       20.728500000000      21.173455097126      17.499375000000
      2695    2       19.134000000000      18.411700084457      15.555000000000
      2696    2       20.728500000000      21.173455097126      15.555000000000
      2697    1       23.917500000000      17.491115080234      20.091875000000
      2698    1       22.323000000000      20.252870092903      20.091875000000
      2699    2       23.917500000000      17.491115080234      18.147500000000
      2700    2       22.323000000000      20.252870092903      18.147500000000
      2701    1       22.323000000000      18.411700084457      17.499375000000
      2702    1       23.917500000000      21.173455097126      17.499375000000
      2703    2       22.323000000000      18.411700084457      15.555000000000
      2704    2       23.917500000000      21.173455097126      15.555000000000
      2705    1       27.106500000000      17.491115080234      20.091875000000
      2706    1       25.512000000000      20.252870092903      20.091875000000
      2707    2       27.106500000000      17.491115080234      18.147500000000
      2708    2       25.512000000000      20.252870092903      18.147500000000
      2709    1       25.512000000000      18.411700084457      17.499375000000
      2710    1       27.106500000000      21.173455097126      17.499375000000
      2711    2       25.512000000000      18.411700084457      15.555000000000
      2712    2       27.106500000000      21.173455097126      15.555000000000
      2713    1       30.295500000000      17.491115080234      20.091875000000
      2714    1       28.701000000000      20.252870092903      20.091875000000
      2715    2       30.295500000000      17.491115080234      18.147500000000
      2716    2       28.701000000000      20.252870092903      18.147500000000
      2717    1       28.701000000000      18.411700084457      17.499375000000
      2718    1       30.295500000000      21.173455097126      17.499375000000
      2719    2       28.701000000000      18.411700084457      15.555000000000
      2720    2       30.295500000000      21.173455097126      15.555000000000
      2721    1        1.594500000000      23.014625105571      20.091875000000
      2722    1        0.000000000000      25.776380118240      20.091875000000
      2723    2        1.594500000000      23.014625105571      18.147500000000
      2724    2        0.000000000000      25.776380118240      18.147500000000
      2725    1        0.000000000000      23.935210109794      17.499375000000
      2726    1        1.594500000000      26.696965122463      17.499375000000
      2727    2        0.000000000000      23.935210109794      15.555000000000
      2728    2        1.594500000000      26.696965122463      15.555000000000
      2729    1        4.783500000000      23.014625105571      20.091875000000
      2730    1        3.189000000000      25.776380118240      20.091875000000
      2731    2        4.783500000000      23.014625105571      18.147500000000
      2732    2        3.189000000000      25.776380118240      18.147500000000
      2733    1        3.189000000000      23.935210109794      17.499375000000
      2734    1        4.783500000000      26.696965122463      17.499375000000
      2735    2        3.189000000000      23.935210109794      15.555000000000
      2736    2        4.783500000000      26.696965122463      15.555000000000
      2737    1        7.972500000000      23.014625105571      20.091875000000
      2738    1        6.378000000000      25.776380118240      20.091875000000
      2739    2        7.972500000000      23.014625105571      18.147500000000
      2740    2        6.378000000000      25.776380118240      18.147500000000
      2741    1        6.378000000000      23.935210109794      17.499375000000
      2742    1        7.972500000000      26.696965122463      17.499375000000
      2743    2        6.378000000000      23.935210109794      15.555000000000
      2744    2        7.972500000000      26.696965122463      15.555000000000
      2745    1       11.161500000000      23.014625105571      20.091875000000
      2746    1        9.567000000000      25.776380118240      20.091875000000
      2747    2       11.161500000000      23.014625105571      18.147500000000
      2748    2        9.567000000000      25.776380118240      18.147500000000
      2749    1        9.567000000000      23.935210109794      17.499375000000
      2750    1       11.161500000000      26.696965122463      17.499375000000
      2751    2        9.567000000000      23.935210109794      15.555000000000
      2752    2       11.161500000000      26.696965122463      15.555000000000
      2753    1       14.350500000000      23.014625105571      20.091875000000
      2754    1       12.756000000000      25.776380118240      20.091875000000
      2755    2       14.350500000000      23.014625105571      18.147500000000
      2756    2       12.756000000000      25.776380118240      18.147500000000
      2757    1       12.756000000000      23.935210109794      17.499375000000
      2758    1       14.350500000000      26.696965122463      17.499375000000
      2759    2       12.756000000000      23.935210109794      15.555000000000
      2760    2       14.350500000000      26.696965122463      15.555000000000
      2761    1       17.539500000000      23.014625105571      20.091875000000
      2762    1       15.945000000000      25.776380118240      20.091875000000
      2763    2       17.539500000000      23.014625105571      18.147500000000
      2764    2       15.945000000000      25.776380118240      18.147500000000
      2765    1       15.945000000000      23.935210109794      17.499375000000
      2766    1       17.539500000000      26.696965122463      17.499375000000
      2767    2       15.945000000000      23.935210109794      15.555000000000
      2768    2       17.539500000000      26.696965122463      15.555000000000
      2769    1       20.728500000000      23.014625105571      20.091875000000
      2770    1       19.134000000000      25.776380118240      20.091875000000
      2771    2       20.728500000000      23.014625105571      18.147500000000
      2772    2       19.134000000000      25.776380118240      18.147500000000
      2773    1       19.134000000000      23.935210109794      17.499375000000
      2774    1       20.728500000000      26.696965122463      17.499375000000
      2775    2       19.134000000000      23.935210109794      15.555000000000
      2776    2       20.728500000000      26.696965122463      15.555000000000
      2777    1       23.917500000000      23.014625105571      20.091875000000
      2778    1       22.323000000000      25.776380118240      20.091875000000
      2779    2       23.917500000000      23.014625105571      18.147500000000
      2780    2       22.323000000000      25.776380118240      18.147500000000
      2781    1       22.323000000000      23.935210109794      17.499375000000
      2782    1       23.917500000000      26.696965122463      17.499375000000
      2783    2       22.323000000000      23.935210109794      15.555000000000
      2784    2       23.917500000000      26.696965122463      15.555000000000
      2785    1       27.106500000000      23.014625105571      20.091875000000
      2786    1       25.512000000000      25.776380118240      20.091875000000
      2787    2       27.106500000000      23.014625105571      18.147500000000
      2788    2       25.512000000000      25.776380118240      18.147500000000
      2789    1       25.512000000000      23.935210109794      17.499375000000
      2790    1       27.106500000000      26.696965122463      17.499375000000
      2791    2       25.512000000000      23.935210109794      15.555000000000
      2792    2       27.106500000000      26.696965122463      15.555000000000
      2793    1       30.295500000000      23.014625105571      20.091875000000
      2794    1       28.701000000000      25.776380118240      20.091875000000
      2795    2       30.295500000000      23.014625105571      18.147500000000
      2796    2       28.701000000000      25.776380118240      18.147500000000
      2797    1       28.701000000000      23.935210109794      17.499375000000
      2798    1       30.295500000000      26.696965122463      17.499375000000
      2799    2       28.701000000000      23.935210109794      15.555000000000
      2800    2       30.295500000000      26.696965122463      15.555000000000
      2801    1        1.594500000000      28.538135130909      20.091875000000
      2802    1        0.000000000000      31.299890143577      20.091875000000
      2803    2        1.594500000000      28.538135130909      18.147500000000
      2804    2        0.000000000000      31.299890143577      18.147500000000
      2805    1        0.000000000000      29.458720135131      17.499375000000
      2806    1        1.594500000000      32.220475147800      17.499375000000
      2807    2        0.000000000000      29.458720135131      15.555000000000
      2808    2        1.594500000000      32.220475147800      15.555000000000
      2809    1        4.783500000000      28.538135130909      20.091875000000
      2810    1        3.189000000000      31.299890143577      20.091875000000
      2811    2        4.783500000000      28.538135130909      18.147500000000
      2812    2        3.189000000000      31.299890143577      18.147500000000
      2813    1        3.189000000000      29.458720135131      17.499375000000
      2814    1        4.783500000000      32.220475147800      17.499375000000
      2815    2        3.189000000000      29.458720135131      15.555000000000
      2816    2        4.783500000000      32.220475147800      15.555000000000
      2817    1        7.972500000000      28.538135130909      20.091875000000
      2818    1        6.378000000000      31.299890143577      20.091875000000
      2819    2        7.972500000000      28.538135130909      18.147500000000
      2820    2        6.378000000000      31.299890143577      18.147500000000
      2821    1        6.378000000000      29.458720135131      17.499375000000
      2822    1        7.972500000000      32.220475147800      17.499375000000
      2823    2        6.378000000000      29.458720135131      15.555000000000
      2824    2        7.972500000000      32.220475147800      15.555000000000
      2825    1       11.161500000000      28.538135130909      20.091875000000
      2826    1        9.567000000000      31.299890143577      20.091875000000
      2827    2       11.161500000000      28.538135130909      18.147500000000
      2828    2        9.567000000000      31.299890143577      18.147500000000
      2829    1        9.567000000000      29.458720135131      17.499375000000
      2830    1       11.161500000000      32.220475147800      17.499375000000
      2831    2        9.567000000000      29.458720135131      15.555000000000
      2832    2       11.161500000000      32.220475147800      15.555000000000
      2833    1       14.350500000000      28.538135130909      20.091875000000
      2834    1       12.756000000000      31.299890143577      20.091875000000
      2835    2       14.350500000000      28.538135130909      18.147500000000
      2836    2       12.756000000000      31.299890143577      18.147500000000
      2837    1       12.756000000000      29.458720135131      17.499375000000
      2838    1       14.350500000000      32.220475147800      17.499375000000
      2839    2       12.756000000000      29.458720135131      15.555000000000
      2840    2       14.350500000000      32.220475147800      15.555000000000
      2841    1       17.539500000000      28.538135130909      20.091875000000
      2842    1       15.945000000000      31.299890143577      20.091875000000
      2843    2       17.539500000000      28.538135130909      18.147500000000
      2844    2       15.945000000000      31.299890143577      18.147500000000
      2845    1       15.945000000000      29.458720135131      17.499375000000
      2846    1       17.539500000000      32.220475147800      17.499375000000
      2847    2       15.945000000000      29.458720135131      15.555000000000
      2848    2       17.539500000000      32.220475147800      15.555000000000
      2849    1       20.728500000000      28.538135130909      20.091875000000
      2850    1       19.134000000000      31.299890143577      20.091875000000
      2851    2       20.728500000000      28.538135130909      18.147500000000
      2852    2       19.134000000000      31.299890143577      18.147500000000
      2853    1       19.134000000000      29.458720135131      17.499375000000
      2854    1       20.728500000000      32.220475147800      17.499375000000
      2855    2       19.134000000000      29.458720135131      15.555000000000
      2856    2       20.728500000000      32.220475147800      15.555000000000
      2857    1       23.917500000000      28.538135130909      20.091875000000
      2858    1       22.323000000000      31.299890143577      20.091875000000
      2859    2       23.917500000000      28.538135130909      18.147500000000
      2860    2       22.323000000000      31.299890143577      18.147500000000
      2861    1       22.323000000000      29.458720135131      17.499375000000
      2862    1       23.917500000000      32.220475147800      17.499375000000
      2863    2       22.323000000000      29.458720135131      15.555000000000
      2864    2       23.917500000000      32.220475147800      15.555000000000
      2865    1       27.106500000000      28.538135130909      20.091875000000
      2866    1       25.512000000000      31.299890143577      20.091875000000
      2867    2       27.106500000000      28.538135130909      18.147500000000
      2868    2       25.512000000000      31.299890143577      18.147500000000
      2869    1       25.512000000000      29.458720135131      17.499375000000
      2870    1       27.106500000000      32.220475147800      17.499375000000
      2871    2       25.512000000000      29.458720135131      15.555000000000
      2872    2       27.106500000000      32.220475147800      15.555000000000
      2873    1       30.295500000000      28.538135130909      20.091875000000
      2874    1       28.701000000000      31.299890143577      20.091875000000
      2875    2       30.295500000000      28.538135130909      18.147500000000
      2876    2       28.701000000000      31.299890143577      18.147500000000
      2877    1       28.701000000000      29.458720135131      17.499375000000
      2878    1       30.295500000000      32.220475147800      17.499375000000
      2879    2       28.701000000000      29.458720135131      15.555000000000
      2880    2       30.295500000000      32.220475147800      15.555000000000
      2881    1        1.594500000000      34.061645156246      20.091875000000
      2882    1        0.000000000000      36.823400168914      20.091875000000
      2883    2        1.594500000000      34.061645156246      18.147500000000
      2884    2        0.000000000000      36.823400168914      18.147500000000
      2885    1        0.000000000000      34.982230160469      17.499375000000
      2886    1        1.594500000000      37.743985173137      17.499375000000
      2887    2        0.000000000000      34.982230160469      15.555000000000
      2888    2        1.594500000000      37.743985173137      15.555000000000
      2889    1        4.783500000000      34.061645156246      20.091875000000
      2890    1        3.189000000000      36.823400168914      20.091875000000
      2891    2        4.783500000000      34.061645156246      18.147500000000
      2892    2        3.189000000000      36.823400168914      18.147500000000
      2893    1        3.189000000000      34.982230160469      17.499375000000
      2894    1        4.783500000000      37.743985173137      17.499375000000
      2895    2        3.189000000000      34.982230160469      15.555000000000
      2896    2        4.783500000000      37.743985173137      15.555000000000
      2897    1        7.972500000000      34.061645156246      20.091875000000
      2898    1        6.378000000000      36.823400168914      20.091875000000
      2899    2        7.972500000000      34.061645156246      18.147500000000
      2900    2        6.378000000000      36.823400168914      18.147500000000
      2901    1        6.378000000000      34.982230160469      17.499375000000
      2902    1        7.972500000000      37.743985173137      17.499375000000
      2903    2        6.378000000000      34.982230160469      15.555000000000
      2904    2        7.972500000000      37.743985173137      15.555000000000
      2905    1       11.161500000000      34.061645156246      20.091875000000
      2906    1        9.567000000000      36.823400168914      20.091875000000
      2907    2       11.161500000000      34.061645156246      18.147500000000
      2908    2        9.567000000000      36.823400168914      18.147500000000
      2909    1        9.567000000000      34.982230160469      17.499375000000
      2910    1       11.161500000000      37.743985173137      17.499375000000
      2911    2        9.567000000000      34.982230160469      15.555000000000
      2912    2       11.161500000000      37.743985173137      15.555000000000
      2913    1       14.350500000000      34.061645156246      20.091875000000
      2914    1       12.756000000000      36.823400168914      20.091875000000
      2915    2       14.350500000000      34.061645156246      18.147500000000
      2916    2       12.756000000000      36.823400168914      18.147500000000
      2917    1       12.756000000000      34.982230160469      17.499375000000
      2918    1       14.350500000000      37.743985173137      17.499375000000
      2919    2       12.756000000000      34.982230160469      15.555000000000
      2920    2       14.350500000000      37.743985173137      15.555000000000
      2921    1       17.539500000000      34.061645156246      20.091875000000
      2922    1       15.945000000000      36.823400168914      20.091875000000
      2923    2       17.539500000000      34.061645156246      18.147500000000
      2924    2       15.945000000000      36.823400168914      18.147500000000
      2925    1       15.945000000000      34.982230160469      17.499375000000
      2926    1       17.539500000000      37.743985173137      17.499375000000
      2927    2       15.945000000000      34.982230160469      15.555000000000
      2928    2       17.539500000000      37.743985173137      15.555000000000
      2929    1       20.728500000000      34.061645156246      20.091875000000
      2930    1       19.134000000000      36.823400168914      20.091875000000
      2931    2       20.728500000000      34.061645156246      18.147500000000
      2932    2       19.134000000000      36.823400168914      18.147500000000
      2933    1       19.134000000000      34.982230160469      17.499375000000
      2934    1       20.728500000000      37.743985173137      17.499375000000
      2935    2       19.134000000000      34.982230160469      15.555000000000
      2936    2       20.728500000000      37.743985173137      15.555000000000
      2937    1       23.917500000000      34.061645156246      20.091875000000
      2938    1       22.323000000000      36.823400168914      20.091875000000
      2939    2       23.917500000000      34.061645156246      18.147500000000
      2940    2       22.323000000000      36.823400168914      18.147500000000
      2941    1       22.323000000000      34.982230160469      17.499375000000
      2942    1       23.917500000000      37.743985173137      17.499375000000
      2943    2       22.323000000000      34.982230160469      15.555000000000
      2944    2       23.917500000000      37.743985173137      15.555000000000
      2945    1       27.106500000000      34.061645156246      20.091875000000
      2946    1       25.512000000000      36.823400168914      20.091875000000
      2947    2       27.106500000000      34.061645156246      18.147500000000
      2948    2       25.512000000000      36.823400168914      18.147500000000
      2949    1       25.512000000000      34.982230160469      17.499375000000
      2950    1       27.106500000000      37.743985173137      17.499375000000
      2951    2       25.512000000000      34.982230160469      15.555000000000
      2952    2       27.106500000000      37.743985173137      15.555000000000
      2953    1       30.295500000000      34.061645156246      20.091875000000
      2954    1       28.701000000000      36.823400168914      20.091875000000
      2955    2       30.295500000000      34.061645156246      18.147500000000
      2956    2       28.701000000000      36.823400168914      18.147500000000
      2957    1       28.701000000000      34.982230160469      17.499375000000
      2958    1       30.295500000000      37.743985173137      17.499375000000
      2959    2       28.701000000000      34.982230160469      15.555000000000
      2960    2       30.295500000000      37.743985173137      15.555000000000
      2961    1        1.594500000000      39.585155181583      20.091875000000
      2962    1        0.000000000000      42.346910194251      20.091875000000
      2963    2        1.594500000000      39.585155181583      18.147500000000
      2964    2        0.000000000000      42.346910194251      18.147500000000
      2965    1        0.000000000000      40.505740185806      17.499375000000
      2966    1        1.594500000000      43.267495198474      17.499375000000
      2967    2        0.000000000000      40.505740185806      15.555000000000
      2968    2        1.594500000000      43.267495198474      15.555000000000
      2969    1        4.783500000000      39.585155181583      20.091875000000
      2970    1        3.189000000000      42.346910194251      20.091875000000
      2971    2        4.783500000000      39.585155181583      18.147500000000
      2972    2        3.189000000000      42.346910194251      18.147500000000
      2973    1        3.189000000000      40.505740185806      17.499375000000
      2974    1        4.783500000000      43.267495198474      17.499375000000
      2975    2        3.189000000000      40.505740185806      15.555000000000
      2976    2        4.783500000000      43.267495198474      15.555000000000
      2977    1        7.972500000000      39.585155181583      20.091875000000
      2978    1        6.378000000000      42.346910194251      20.091875000000
      2979    2        7.972500000000      39.585155181583      18.147500000000
      2980    2        6.378000000000      42.346910194251      18.147500000000
      2981    1        6.378000000000      40.505740185806      17.499375000000
      2982    1        7.972500000000      43.267495198474      17.499375000000
      2983    2        6.378000000000      40.505740185806      15.555000000000
      2984    2        7.972500000000      43.267495198474      15.555000000000
      2985    1       11.161500000000      39.585155181583      20.091875000000
      2986    1        9.567000000000      42.346910194251      20.091875000000
      2987    2       11.161500000000      39.585155181583      18.147500000000
      2988    2        9.567000000000      42.346910194251      18.147500000000
      2989    1        9.567000000000      40.505740185806      17.499375000000
      2990    1       11.161500000000      43.267495198474      17.499375000000
      2991    2        9.567000000000      40.505740185806      15.555000000000
      2992    2       11.161500000000      43.267495198474      15.555000000000
      2993    1       14.350500000000      39.585155181583      20.091875000000
      2994    1       12.756000000000      42.346910194251      20.091875000000
      2995    2       14.350500000000      39.585155181583      18.147500000000
      2996    2       12.756000000000      42.346910194251      18.147500000000
      2997    1       12.756000000000      40.505740185806      17.499375000000
      2998    1       14.350500000000      43.267495198474      17.499375000000
      2999    2       12.756000000000      40.505740185806      15.555000000000
      3000    2       14.350500000000      43.267495198474      15.555000000000
      3001    1       17.539500000000      39.585155181583      20.091875000000
      3002    1       15.945000000000      42.346910194251      20.091875000000
      3003    2       17.539500000000      39.585155181583      18.147500000000
      3004    2       15.945000000000      42.346910194251      18.147500000000
      3005    1       15.945000000000      40.505740185806      17.499375000000
      3006    1       17.539500000000      43.267495198474      17.499375000000
      3007    2       15.945000000000      40.505740185806      15.555000000000
      3008    2       17.539500000000      43.267495198474      15.555000000000
      3009    1       20.728500000000      39.585155181583      20.091875000000
      3010    1       19.134000000000      42.346910194251      20.091875000000
      3011    2       20.728500000000      39.585155181583      18.147500000000
      3012    2       19.134000000000      42.346910194251      18.147500000000
      3013    1       19.134000000000      40.505740185806      17.499375000000
      3014    1       20.728500000000      43.267495198474      17.499375000000
      3015    2       19.134000000000      40.505740185806      15.555000000000
      3016    2       20.728500000000      43.267495198474      15.555000000000
      3017    1       23.917500000000      39.585155181583      20.091875000000
      3018    1       22.323000000000      42.346910194251      20.091875000000
      3019    2       23.917500000000      39.585155181583      18.147500000000
      3020    2       22.323000000000      42.346910194251      18.147500000000
      3021    1       22.323000000000      40.505740185806      17.499375000000
      3022    1       23.917500000000      43.267495198474      17.499375000000
      3023    2       22.323000000000      40.505740185806      15.555000000000
      3024    2       23.917500000000      43.267495198474      15.555000000000
      3025    1       27.106500000000      39.585155181583      20.091875000000
      3026    1       25.512000000000      42.346910194251      20.091875000000
      3027    2       27.106500000000      39.585155181583      18.147500000000
      3028    2       25.512000000000      42.346910194251      18.147500000000
      3029    1       25.512000000000      40.505740185806      17.499375000000
      3030    1       27.106500000000      43.267495198474      17.499375000000
      3031    2       25.512000000000      40.505740185806      15.555000000000
      3032    2       27.106500000000      43.267495198474      15.555000000000
      3033    1       30.295500000000      39.585155181583      20.091875000000
      3034    1       28.701000000000      42.346910194251      20.091875000000
      3035    2       30.295500000000      39.585155181583      18.147500000000
      3036    2       28.701000000000      42.346910194251      18.147500000000
      3037    1       28.701000000000      40.505740185806      17.499375000000
      3038    1       30.295500000000      43.267495198474      17.499375000000
      3039    2       28.701000000000      40.505740185806      15.555000000000
      3040    2       30.295500000000      43.267495198474      15.555000000000
      3041    1        1.594500000000      45.108665206920      20.091875000000
      3042    1        0.000000000000      47.870420219589      20.091875000000
      3043    2        1.594500000000      45.108665206920      18.147500000000
      3044    2        0.000000000000      47.870420219589      18.147500000000
      3045    1        0.000000000000      46.029250211143      17.499375000000
      3046    1        1.594500000000      48.791005223811      17.499375000000
      3047    2        0.000000000000      46.029250211143      15.555000000000
      3048    2        1.594500000000      48.791005223811      15.555000000000
      3049    1        4.783500000000      45.108665206920      20.091875000000
      3050    1        3.189000000000      47.870420219589      20.091875000000
      3051    2        4.783500000000      45.108665206920      18.147500000000
      3052    2        3.189000000000      47.870420219589      18.147500000000
      3053    1        3.189000000000      46.029250211143      17.499375000000
      3054    1        4.783500000000      48.791005223811      17.499375000000
      3055    2        3.189000000000      46.029250211143      15.555000000000
      3056    2        4.783500000000      48.791005223811      15.555000000000
      3057    1        7.972500000000      45.108665206920      20.091875000000
      3058    1        6.378000000000      47.870420219589      20.091875000000
      3059    2        7.972500000000      45.108665206920      18.147500000000
      3060    2        6.378000000000      47.870420219589      18.147500000000
      3061    1        6.378000000000      46.029250211143      17.499375000000
      3062    1        7.972500000000      48.791005223811      17.499375000000
      3063    2        6.378000000000      46.029250211143      15.555000000000
      3064    2        7.972500000000      48.791005223811      15.555000000000
      3065    1       11.161500000000      45.108665206920      20.091875000000
      3066    1        9.567000000000      47.870420219589      20.091875000000
      3067    2       11.161500000000      45.108665206920      18.147500000000
      3068    2        9.567000000000      47.870420219589      18.147500000000
      3069    1        9.567000000000      46.029250211143      17.499375000000
      3070    1       11.161500000000      48.791005223811      17.499375000000
      3071    2        9.567000000000      46.029250211143      15.555000000000
      3072    2       11.161500000000      48.791005223811      15.555000000000
      3073    1       14.350500000000      45.108665206920      20.091875000000
      3074    1       12.756000000000      47.870420219589      20.091875000000
      3075    2       14.350500000000      45.108665206920      18.147500000000
      3076    2       12.756000000000      47.870420219589      18.147500000000
      3077    1       12.756000000000      46.029250211143      17.499375000000
      3078    1       14.350500000000      48.791005223811      17.499375000000
      3079    2       12.756000000000      46.029250211143      15.555000000000
      3080    2       14.350500000000      48.791005223811      15.555000000000
      3081    1       17.539500000000      45.108665206920      20.091875000000
      3082    1       15.945000000000      47.870420219589      20.091875000000
      3083    2       17.539500000000      45.108665206920      18.147500000000
      3084    2       15.945000000000      47.870420219589      18.147500000000
      3085    1       15.945000000000      46.029250211143      17.499375000000
      3086    1       17.539500000000      48.791005223811      17.499375000000
      3087    2       15.945000000000      46.029250211143      15.555000000000
      3088    2       17.539500000000      48.791005223811      15.555000000000
      3089    1       20.728500000000      45.108665206920      20.091875000000
      3090    1       19.134000000000      47.870420219589      20.091875000000
      3091    2       20.728500000000      45.108665206920      18.147500000000
      3092    2       19.134000000000      47.870420219589      18.147500000000
      3093    1       19.134000000000      46.029250211143      17.499375000000
      3094    1       20.728500000000      48.791005223811      17.499375000000
      3095    2       19.134000000000      46.029250211143      15.555000000000
      3096    2       20.728500000000      48.791005223811      15.555000000000
      3097    1       23.917500000000      45.108665206920      20.091875000000
      3098    1       22.323000000000      47.870420219589      20.091875000000
      3099    2       23.917500000000      45.108665206920      18.147500000000
      3100    2       22.323000000000      47.870420219589      18.147500000000
      3101    1       22.323000000000      46.029250211143      17.499375000000
      3102    1       23.917500000000      48.791005223811      17.499375000000
      3103    2       22.323000000000      46.029250211143      15.555000000000
      3104    2       23.917500000000      48.791005223811      15.555000000000
      3105    1       27.106500000000      45.108665206920      20.091875000000
      3106    1       25.512000000000      47.870420219589      20.091875000000
      3107    2       27.106500000000      45.108665206920      18.147500000000
      3108    2       25.512000000000      47.870420219589      18.147500000000
      3109    1       25.512000000000      46.029250211143      17.499375000000
      3110    1       27.106500000000      48.791005223811      17.499375000000
      3111    2       25.512000000000      46.029250211143      15.555000000000
      3112    2       27.106500000000      48.791005223811      15.555000000000
      3113    1       30.295500000000      45.108665206920      20.091875000000
      3114    1       28.701000000000      47.870420219589      20.091875000000
      3115    2       30.295500000000      45.108665206920      18.147500000000
      3116    2       28.701000000000      47.870420219589      18.147500000000
      3117    1       28.701000000000      46.029250211143      17.499375000000
      3118    1       30.295500000000      48.791005223811      17.499375000000
      3119    2       28.701000000000      46.029250211143      15.555000000000
      3120    2       30.295500000000      48.791005223811      15.555000000000
      3121    1        1.594500000000      50.632175232257      20.091875000000
      3122    1        0.000000000000      53.393930244926      20.091875000000
      3123    2        1.594500000000      50.632175232257      18.147500000000
      3124    2        0.000000000000      53.393930244926      18.147500000000
      3125    1        0.000000000000      51.552760236480      17.499375000000
      3126    1        1.594500000000      54.314515249149      17.499375000000
      3127    2        0.000000000000      51.552760236480      15.555000000000
      3128    2        1.594500000000      54.314515249149      15.555000000000
      3129    1        4.783500000000      50.632175232257      20.091875000000
      3130    1        3.189000000000      53.393930244926      20.091875000000
      3131    2        4.783500000000      50.632175232257      18.147500000000
      3132    2        3.189000000000      53.393930244926      18.147500000000
      3133    1        3.189000000000      51.552760236480      17.499375000000
      3134    1        4.783500000000      54.314515249149      17.499375000000
      3135    2        3.189000000000      51.552760236480      15.555000000000
      3136    2        4.783500000000      54.314515249149      15.555000000000
      3137    1        7.972500000000      50.632175232257      20.091875000000
      3138    1        6.378000000000      53.393930244926      20.091875000000
      3139    2        7.972500000000      50.632175232257      18.147500000000
      3140    2        6.378000000000      53.393930244926      18.147500000000
      3141    1        6.378000000000      51.552760236480      17.499375000000
      3142    1        7.972500000000      54.314515249149      17.499375000000
      3143    2        6.378000000000      51.552760236480      15.555000000000
      3144    2        7.972500000000      54.314515249149      15.555000000000
      3145    1       11.161500000000      50.632175232257      20.091875000000
      3146    1        9.567000000000      53.393930244926      20.091875000000
      3147    2       11.161500000000      50.632175232257      18.147500000000
      3148    2        9.567000000000      53.393930244926      18.147500000000
      3149    1        9.567000000000      51.552760236480      17.499375000000
      3150    1       11.161500000000      54.314515249149      17.499375000000
      3151    2        9.567000000000      51.552760236480      15.555000000000
      3152    2       11.161500000000      54.314515249149      15.555000000000
      3153    1       14.350500000000      50.632175232257      20.091875000000
      3154    1       12.756000000000      53.393930244926      20.091875000000
      3155    2       14.350500000000      50.632175232257      18.147500000000
      3156    2       12.756000000000      53.393930244926      18.147500000000
      3157    1       12.756000000000      51.552760236480      17.499375000000
      3158    1       14.350500000000      54.314515249149      17.499375000000
      3159    2       12.756000000000      51.552760236480      15.555000000000
      3160    2       14.350500000000      54.314515249149      15.555000000000
      3161    1       17.539500000000      50.632175232257      20.091875000000
      3162    1       15.945000000000      53.393930244926      20.091875000000
      3163    2       17.539500000000      50.632175232257      18.147500000000
      3164    2       15.945000000000      53.393930244926      18.147500000000
      3165    1       15.945000000000      51.552760236480      17.499375000000
      3166    1       17.539500000000      54.314515249149      17.499375000000
      3167    2       15.945000000000      51.552760236480      15.555000000000
      3168    2       17.539500000000      54.314515249149      15.555000000000
      3169    1       20.728500000000      50.632175232257      20.091875000000
      3170    1       19.134000000000      53.393930244926      20.091875000000
      3171    2       20.728500000000      50.632175232257      18.147500000000
      3172    2       19.134000000000      53.393930244926      18.147500000000
      3173    1       19.134000000000      51.552760236480      17.499375000000
      3174    1       20.728500000000      54.314515249149      17.499375000000
      3175    2       19.134000000000      51.552760236480      15.555000000000
      3176    2       20.728500000000      54.314515249149      15.555000000000
      3177    1       23.917500000000      50.632175232257      20.091875000000
      3178    1       22.323000000000      53.393930244926      20.091875000000
      3179    2       23.917500000000      50.632175232257      18.147500000000
      3180    2       22.323000000000      53.393930244926      18.147500000000
      3181    1       22.323000000000      51.552760236480      17.499375000000
      3182    1       23.917500000000      54.314515249149      17.499375000000
      3183    2       22.323000000000      51.552760236480      15.555000000000
      3184    2       23.917500000000      54.314515249149      15.555000000000
      3185    1       27.106500000000      50.632175232257      20.091875000000
      3186    1       25.512000000000      53.393930244926      20.091875000000
      3187    2       27.106500000000      50.632175232257      18.147500000000
      3188    2       25.512000000000      53.393930244926      18.147500000000
      3189    1       25.512000000000      51.552760236480      17.499375000000
      3190    1       27.106500000000      54.314515249149      17.499375000000
      3191    2       25.512000000000      51.552760236480      15.555000000000
      3192    2       27.106500000000      54.314515249149      15.555000000000
      3193    1       30.295500000000      50.632175232257      20.091875000000
      3194    1       28.701000000000      53.393930244926      20.091875000000
      3195    2       30.295500000000      50.632175232257      18.147500000000
      3196    2       28.701000000000      53.393930244926      18.147500000000
      3197    1       28.701000000000      51.552760236480      17.499375000000
      3198    1       30.295500000000      54.314515249149      17.499375000000
      3199    2       28.701000000000      51.552760236480      15.555000000000
      3200    2       30.295500000000      54.314515249149      15.555000000000
      3201    1        1.594500000000       0.920585004223      25.276875000000
      3202    1        0.000000000000       3.682340016891      25.276875000000
      3203    2        1.594500000000       0.920585004223      23.332500000000
      3204    2        0.000000000000       3.682340016891      23.332500000000
      3205    1        0.000000000000       1.841170008446      22.684375000000
      3206    1        1.594500000000       4.602925021114      22.684375000000
      3207    2        0.000000000000       1.841170008446      20.740000000000
      3208    2        1.594500000000       4.602925021114      20.740000000000
      3209    1        4.783500000000       0.920585004223      25.276875000000
      3210    1        3.189000000000       3.682340016891      25.276875000000
      3211    2        4.783500000000       0.920585004223      23.332500000000
      3212    2        3.189000000000       3.682340016891      23.332500000000
      3213    1        3.189000000000       1.841170008446      22.684375000000
      3214    1        4.783500000000       4.602925021114      22.684375000000
      3215    2        3.189000000000       1.841170008446      20.740000000000
      3216    2        4.783500000000       4.602925021114      20.740000000000
      3217    1        7.972500000000       0.920585004223      25.276875000000
      3218    1        6.378000000000       3.682340016891      25.276875000000
      3219    2        7.972500000000       0.920585004223      23.332500000000
      3220    2        6.378000000000       3.682340016891      23.332500000000
      3221    1        6.378000000000       1.841170008446      22.684375000000
      3222    1        7.972500000000       4.602925021114      22.684375000000
      3223    2        6.378000000000       1.841170008446      20.740000000000
      3224    2        7.972500000000       4.602925021114      20.740000000000
      3225    1       11.161500000000       0.920585004223      25.276875000000
      3226    1        9.567000000000       3.682340016891      25.276875000000
      3227    2       11.161500000000       0.920585004223      23.332500000000
      3228    2        9.567000000000       3.682340016891      23.332500000000
      3229    1        9.567000000000       1.841170008446      22.684375000000
      3230    1       11.161500000000       4.602925021114      22.684375000000
      3231    2        9.567000000000       1.841170008446      20.740000000000
      3232    2       11.161500000000       4.602925021114      20.740000000000
      3233    1       14.350500000000       0.920585004223      25.276875000000
      3234    1       12.756000000000       3.682340016891      25.276875000000
      3235    2       14.350500000000       0.920585004223      23.332500000000
      3236    2       12.756000000000       3.682340016891      23.332500000000
      3237    1       12.756000000000       1.841170008446      22.684375000000
      3238    1       14.350500000000       4.602925021114      22.684375000000
      3239    2       12.756000000000       1.841170008446      20.740000000000
      3240    2       14.350500000000       4.602925021114      20.740000000000
      3241    1       17.539500000000       0.920585004223      25.276875000000
      3242    1       15.945000000000       3.682340016891      25.276875000000
      3243    2       17.539500000000       0.920585004223      23.332500000000
      3244    2       15.945000000000       3.682340016891      23.332500000000
      3245    1       15.945000000000       1.841170008446      22.684375000000
      3246    1       17.539500000000       4.602925021114      22.684375000000
      3247    2       15.945000000000       1.841170008446      20.740000000000
      3248    2       17.539500000000       4.602925021114      20.740000000000
      3249    1       20.728500000000       0.920585004223      25.276875000000
      3250    1       19.134000000000       3.682340016891      25.276875000000
      3251    2       20.728500000000       0.920585004223      23.332500000000
      3252    2       19.134000000000       3.682340016891      23.332500000000
      3253    1       19.134000000000       1.841170008446      22.684375000000
      3254    1       20.728500000000       4.602925021114      22.684375000000
      3255    2       19.134000000000       1.841170008446      20.740000000000
      3256    2       20.728500000000       4.602925021114      20.740000000000
      3257    1       23.917500000000       0.920585004223      25.276875000000
      3258    1       22.323000000000       3.682340016891      25.276875000000
      3259    2       23.917500000000       0.920585004223      23.332500000000
      3260    2       22.323000000000       3.682340016891      23.332500000000
      3261    1       22.323000000000       1.841170008446      22.684375000000
      3262    1       23.917500000000       4.602925021114      22.684375000000
      3263    2       22.323000000000       1.841170008446      20.740000000000
      3264    2       23.917500000000       4.602925021114      20.740000000000
      3265    1       27.106500000000       0.920585004223      25.276875000000
      3266    1       25.512000000000       3.682340016891      25.276875000000
      3267    2       27.106500000000       0.920585004223      23.332500000000
      3268    2       25.512000000000       3.682340016891      23.332500000000
      3269    1       25.512000000000       1.841170008446      22.684375000000
      3270    1       27.106500000000       4.602925021114      22.684375000000
      3271    2       25.512000000000       1.841170008446      20.740000000000
      3272    2       27.106500000000       4.602925021114      20.740000000000
      3273    1       30.295500000000       0.920585004223      25.276875000000
      3274    1       28.701000000000       3.682340016891      25.276875000000
      3275    2       30.295500000000       0.920585004223      23.332500000000
      3276    2       28.701000000000       3.682340016891      23.332500000000
      3277    1       28.701000000000       1.841170008446      22.684375000000
      3278    1       30.295500000000       4.602925021114      22.684375000000
      3279    2       28.701000000000       1.841170008446      20.740000000000
      3280    2       30.295500000000       4.602925021114      20.740000000000
      3281    1        1.594500000000       6.444095029560      25.276875000000
      3282    1        0.000000000000       9.205850042229      25.276875000000
      3283    2        1.594500000000       6.444095029560      23.332500000000
      3284    2        0.000000000000       9.205850042229      23.332500000000
      3285    1        0.000000000000       7.364680033783      22.684375000000
      3286    1        1.594500000000      10.126435046451      22.684375000000
      3287    2        0.000000000000       7.364680033783      20.740000000000
      3288    2        1.594500000000      10.126435046451      20.740000000000
      3289    1        4.783500000000       6.444095029560      25.276875000000
      3290    1        3.189000000000       9.205850042229      25.276875000000
      3291    2        4.783500000000       6.444095029560      23.332500000000
      3292    2        3.189000000000       9.205850042229      23.332500000000
      3293    1        3.189000000000       7.364680033783      22.684375000000
      3294    1        4.783500000000      10.126435046451      22.684375000000
      3295    2        3.189000000000       7.364680033783      20.740000000000
      3296    2        4.783500000000      10.126435046451      20.740000000000
      3297    1        7.972500000000       6.444095029560      25.276875000000
      3298    1        6.378000000000       9.205850042229      25.276875000000
      3299    2        7.972500000000       6.444095029560      23.332500000000
      3300    2        6.378000000000       9.205850042229      23.332500000000
      3301    1        6.378000000000       7.364680033783      22.684375000000
      3302    1        7.972500000000      10.126435046451      22.684375000000
      3303    2        6.378000000000       7.364680033783      20.740000000000
      3304    2        7.972500000000      10.126435046451      20.740000000000
      3305    1       11.161500000000       6.444095029560      25.276875000000
      3306    1        9.567000000000       9.205850042229      25.276875000000
      3307    2       11.161500000000       6.444095029560      23.332500000000
      3308    2        9.567000000000       9.205850042229      23.332500000000
      3309    1        9.567000000000       7.364680033783      22.684375000000
      3310    1       11.161500000000      10.126435046451      22.684375000000
      3311    2        9.567000000000       7.364680033783      20.740000000000
      3312    2       11.161500000000      10.126435046451      20.740000000000
      3313    1       14.350500000000       6.444095029560      25.276875000000
      3314    1       12.756000000000       9.205850042229      25.276875000000
      3315    2       14.350500000000       6.444095029560      23.332500000000
      3316    2       12.756000000000       9.205850042229      23.332500000000
      3317    1       12.756000000000       7.364680033783      22.684375000000
      3318    1       14.350500000000      10.126435046451      22.684375000000
      3319    2       12.756000000000       7.364680033783      20.740000000000
      3320    2       14.350500000000      10.126435046451      20.740000000000
      3321    1       17.539500000000       6.444095029560      25.276875000000
      3322    1       15.945000000000       9.205850042229      25.276875000000
      3323    2       17.539500000000       6.444095029560      23.332500000000
      3324    2       15.945000000000       9.205850042229      23.332500000000
      3325    1       15.945000000000       7.364680033783      22.684375000000
      3326    1       17.539500000000      10.126435046451      22.684375000000
      3327    2       15.945000000000       7.364680033783      20.740000000000
      3328    2       17.539500000000      10.126435046451      20.740000000000
      3329    1       20.728500000000       6.444095029560      25.276875000000
      3330    1       19.134000000000       9.205850042229      25.276875000000
      3331    2       20.728500000000       6.444095029560      23.332500000000
      3332    2       19.134000000000       9.205850042229      23.332500000000
      3333    1       19.134000000000       7.364680033783      22.684375000000
      3334    1       20.728500000000      10.126435046451      22.684375000000
      3335    2       19.134000000000       7.364680033783      20.740000000000
      3336    2       20.728500000000      10.126435046451      20.740000000000
      3337    1       23.917500000000       6.444095029560      25.276875000000
      3338    1       22.323000000000       9.205850042229      25.276875000000
      3339    2       23.917500000000       6.444095029560      23.332500000000
      3340    2       22.323000000000       9.205850042229      23.332500000000
      3341    1       22.323000000000       7.364680033783      22.684375000000
      3342    1       23.917500000000      10.126435046451      22.684375000000
      3343    2       22.323000000000       7.364680033783      20.740000000000
      3344    2       23.917500000000      10.126435046451      20.740000000000
      3345    1       27.106500000000       6.444095029560      25.276875000000
      3346    1       25.512000000000       9.205850042229      25.276875000000
      3347    2       27.106500000000       6.444095029560      23.332500000000
      3348    2       25.512000000000       9.205850042229      23.332500000000
      3349    1       25.512000000000       7.364680033783      22.684375000000
      3350    1       27.106500000000      10.126435046451      22.684375000000
      3351    2       25.512000000000       7.364680033783      20.740000000000
      3352    2       27.106500000000      10.126435046451      20.740000000000
      3353    1       30.295500000000       6.444095029560      25.276875000000
      3354    1       28.701000000000       9.205850042229      25.276875000000
      3355    2       30.295500000000       6.444095029560      23.332500000000
      3356    2       28.701000000000       9.205850042229      23.332500000000
      3357    1       28.701000000000       7.364680033783      22.684375000000
      3358    1       30.295500000000      10.126435046451      22.684375000000
      3359    2       28.701000000000       7.364680033783      20.740000000000
      3360    2       30.295500000000      10.126435046451      20.740000000000
      3361    1        1.594500000000      11.967605054897      25.276875000000
      3362    1        0.000000000000      14.729360067566      25.276875000000
      3363    2        1.594500000000      11.967605054897      23.332500000000
      3364    2        0.000000000000      14.729360067566      23.332500000000
      3365    1        0.000000000000      12.888190059120      22.684375000000
      3366    1        1.594500000000      15.649945071789      22.684375000000
      3367    2        0.000000000000      12.888190059120      20.740000000000
      3368    2        1.594500000000      15.649945071789      20.740000000000
      3369    1        4.783500000000      11.967605054897      25.276875000000
      3370    1        3.189000000000      14.729360067566      25.276875000000
      3371    2        4.783500000000      11.967605054897      23.332500000000
      3372    2        3.189000000000      14.729360067566      23.332500000000
      3373    1        3.189000000000      12.888190059120      22.684375000000
      3374    1        4.783500000000      15.649945071789      22.684375000000
      3375    2        3.189000000000      12.888190059120      20.740000000000
      3376    2        4.783500000000      15.649945071789      20.740000000000
      3377    1        7.972500000000      11.967605054897      25.276875000000
      3378    1        6.378000000000      14.729360067566      25.276875000000
      3379    2        7.972500000000      11.967605054897      23.332500000000
      3380    2        6.378000000000      14.729360067566      23.332500000000
      3381    1        6.378000000000      12.888190059120      22.684375000000
      3382    1        7.972500000000      15.649945071789      22.684375000000
      3383    2        6.378000000000      12.888190059120      20.740000000000
      3384    2        7.972500000000      15.649945071789      20.740000000000
      3385    1       11.161500000000      11.967605054897      25.276875000000
      3386    1        9.567000000000      14.729360067566      25.276875000000
      3387    2       11.161500000000      11.967605054897      23.332500000000
      3388    2        9.567000000000      14.729360067566      23.332500000000
      3389    1        9.567000000000      12.888190059120      22.684375000000
      3390    1       11.161500000000      15.649945071789      22.684375000000
      3391    2        9.567000000000      12.888190059120      20.740000000000
      3392    2       11.161500000000      15.649945071789      20.740000000000
      3393    1       14.350500000000      11.967605054897      25.276875000000
      3394    1       12.756000000000      14.729360067566      25.276875000000
      3395    2       14.350500000000      11.967605054897      23.332500000000
      3396    2       12.756000000000      14.729360067566      23.332500000000
      3397    1       12.756000000000      12.888190059120      22.684375000000
      3398    1       14.350500000000      15.649945071789      22.684375000000
      3399    2       12.756000000000      12.888190059120      20.740000000000
      3400    2       14.350500000000      15.649945071789      20.740000000000
      3401    1       17.539500000000      11.967605054897      25.276875000000
      3402    1       15.945000000000      14.729360067566      25.276875000000
      3403    2       17.539500000000      11.967605054897      23.332500000000
      3404    2       15.945000000000      14.729360067566      23.332500000000
      3405    1       15.945000000000      12.888190059120      22.684375000000
      3406    1       17.539500000000      15.649945071789      22.684375000000
      3407    2       15.945000000000      12.888190059120      20.740000000000
      3408    2       17.539500000000      15.649945071789      20.740000000000
      3409    1       20.728500000000      11.967605054897      25.276875000000
      3410    1       19.134000000000      14.729360067566      25.276875000000
      3411    2       20.728500000000      11.967605054897      23.332500000000
      3412    2       19.134000000000      14.729360067566      23.332500000000
      3413    1       19.134000000000      12.888190059120      22.684375000000
      3414    1       20.728500000000      15.649945071789      22.684375000000
      3415    2       19.134000000000      12.888190059120      20.740000000000
      3416    2       20.728500000000      15.649945071789      20.740000000000
      3417    1       23.917500000000      11.967605054897      25.276875000000
      3418    1       22.323000000000      14.729360067566      25.276875000000
      3419    2       23.917500000000      11.967605054897      23.332500000000
      3420    2       22.323000000000      14.729360067566      23.332500000000
      3421    1       22.323000000000      12.888190059120      22.684375000000
      3422    1       23.917500000000      15.649945071789      22.684375000000
      3423    2       22.323000000000      12.888190059120      20.740000000000
      3424    2       23.917500000000      15.649945071789      20.740000000000
      3425    1       27.106500000000      11.967605054897      25.276875000000
      3426    1       25.512000000000      14.729360067566      25.276875000000
      3427    2       27.106500000000      11.967605054897      23.332500000000
      3428    2       25.512000000000      14.729360067566      23.332500000000
      3429    1       25.512000000000      12.888190059120      22.684375000000
      3430    1       27.106500000000      15.649945071789      22.684375000000
      3431    2       25.512000000000      12.888190059120      20.740000000000
      3432    2       27.106500000000      15.649945071789      20.740000000000
      3433    1       30.295500000000      11.967605054897      25.276875000000
      3434    1       28.701000000000      14.729360067566      25.276875000000
      3435    2       30.295500000000      11.967605054897      23.332500000000
      3436    2       28.701000000000      14.729360067566      23.332500000000
      3437    1       28.701000000000      12.888190059120      22.684375000000
      3438    1       30.295500000000      15.649945071789      22.684375000000
      3439    2       28.701000000000      12.888190059120      20.740000000000
      3440    2       30.295500000000      15.649945071789      20.740000000000
      3441    1        1.594500000000      17.491115080234      25.276875000000
      3442    1        0.000000000000      20.252870092903      25.276875000000
      3443    2        1.594500000000      17.491115080234      23.332500000000
      3444    2        0.000000000000      20.252870092903      23.332500000000
      3445    1        0.000000000000      18.411700084457      22.684375000000
      3446    1        1.594500000000      21.173455097126      22.684375000000
      3447    2        0.000000000000      18.411700084457      20.740000000000
      3448    2        1.594500000000      21.173455097126      20.740000000000
      3449    1        4.783500000000      17.491115080234      25.276875000000
      3450    1        3.189000000000      20.252870092903      25.276875000000
      3451    2        4.783500000000      17.491115080234      23.332500000000
      3452    2        3.189000000000      20.252870092903      23.332500000000
      3453    1        3.189000000000      18.411700084457      22.684375000000
      3454    1        4.783500000000      21.173455097126      22.684375000000
      3455    2        3.189000000000      18.411700084457      20.740000000000
      3456    2        4.783500000000      21.173455097126      20.740000000000
      3457    1        7.972500000000      17.491115080234      25.276875000000
      3458    1        6.378000000000      20.252870092903      25.276875000000
      3459    2        7.972500000000      17.491115080234      23.332500000000
      3460    2        6.378000000000      20.252870092903      23.332500000000
      3461    1        6.378000000000      18.411700084457      22.684375000000
      3462    1        7.972500000000      21.173455097126      22.684375000000
      3463    2        6.378000000000      18.411700084457      20.740000000000
      3464    2        7.972500000000      21.173455097126      20.740000000000
      3465    1       11.161500000000      17.491115080234      25.276875000000
      3466    1        9.567000000000      20.252870092903      25.276875000000
      3467    2       11.161500000000      17.491115080234      23.332500000000
      3468    2        9.567000000000      20.252870092903      23.332500000000
      3469    1        9.567000000000      18.411700084457      22.684375000000
      3470    1       11.161500000000      21.173455097126      22.684375000000
      3471    2        9.567000000000      18.411700084457      20.740000000000
      3472    2       11.161500000000      21.173455097126      20.740000000000
      3473    1       14.350500000000      17.491115080234      25.276875000000
      3474    1       12.756000000000      20.252870092903      25.276875000000
      3475    2       14.350500000000      17.491115080234      23.332500000000
      3476    2       12.756000000000      20.252870092903      23.332500000000
      3477    1       12.756000000000      18.411700084457      22.684375000000
      3478    1       14.350500000000      21.173455097126      22.684375000000
      3479    2       12.756000000000      18.411700084457      20.740000000000
      3480    2       14.350500000000      21.173455097126      20.740000000000
      3481    1       17.539500000000      17.491115080234      25.276875000000
      3482    1       15.945000000000      20.252870092903      25.276875000000
      3483    2       17.539500000000      17.491115080234      23.332500000000
      3484    2       15.945000000000      20.252870092903      23.332500000000
      3485    1       15.945000000000      18.411700084457      22.684375000000
      3486    1       17.539500000000      21.173455097126      22.684375000000
      3487    2       15.945000000000      18.411700084457      20.740000000000
      3488    2       17.539500000000      21.173455097126      20.740000000000
      3489    1       20.728500000000      17.491115080234      25.276875000000
      3490    1       19.134000000000      20.252870092903      25.276875000000
      3491    2       20.728500000000      17.491115080234      23.332500000000
      3492    2       19.134000000000      20.252870092903      23.332500000000
      3493    1       19.134000000000      18.411700084457      22.684375000000
      3494    1       20.728500000000      21.173455097126      22.684375000000
      3495    2       19.134000000000      18.411700084457      20.740000000000
      3496    2       20.728500000000      21.173455097126      20.740000000000
      3497    1       23.917500000000      17.491115080234      25.276875000000
      3498    1       22.323000000000      20.252870092903      25.276875000000
      3499    2       23.917500000000      17.491115080234      23.332500000000
      3500    2       22.323000000000      20.252870092903      23.332500000000
      3501    1       22.323000000000      18.411700084457      22.684375000000
      3502    1       23.917500000000      21.173455097126      22.684375000000
      3503    2       22.323000000000      18.411700084457      20.740000000000
      3504    2       23.917500000000      21.173455097126      20.740000000000
      3505    1       27.106500000000      17.491115080234      25.276875000000
      3506    1       25.512000000000      20.252870092903      25.276875000000
      3507    2       27.106500000000      17.491115080234      23.332500000000
      3508    2       25.512000000000      20.252870092903      23.332500000000
      3509    1       25.512000000000      18.411700084457      22.684375000000
      3510    1       27.106500000000      21.173455097126      22.684375000000
      3511    2       25.512000000000      18.411700084457      20.740000000000
      3512    2       27.106500000000      21.173455097126      20.740000000000
      3513    1       30.295500000000      17.491115080234      25.276875000000
      3514    1       28.701000000000      20.252870092903      25.276875000000
      3515    2       30.295500000000      17.491115080234      23.332500000000
      3516    2       28.701000000000      20.252870092903      23.332500000000
      3517    1       28.701000000000      18.411700084457      22.684375000000
      3518    1       30.295500000000      21.173455097126      22.684375000000
      3519    2       28.701000000000      18.411700084457      20.740000000000
      3520    2       30.295500000000      21.173455097126      20.740000000000
      3521    1        1.594500000000      23.014625105571      25.276875000000
      3522    1        0.000000000000      25.776380118240      25.276875000000
      3523    2        1.594500000000      23.014625105571      23.332500000000
      3524    2        0.000000000000      25.776380118240      23.332500000000
      3525    1        0.000000000000      23.935210109794      22.684375000000
      3526    1        1.594500000000      26.696965122463      22.684375000000
      3527    2        0.000000000000      23.935210109794      20.740000000000
      3528    2        1.594500000000      26.696965122463      20.740000000000
      3529    1        4.783500000000      23.014625105571      25.276875000000
      3530    1        3.189000000000      25.776380118240      25.276875000000
      3531    2        4.783500000000      23.014625105571      23.332500000000
      3532    2        3.189000000000      25.776380118240      23.332500000000
      3533    1        3.189000000000      23.935210109794      22.684375000000
      3534    1        4.783500000000      26.696965122463      22.684375000000
      3535    2        3.189000000000      23.935210109794      20.740000000000
      3536    2        4.783500000000      26.696965122463      20.740000000000
      3537    1        7.972500000000      23.014625105571      25.276875000000
      3538    1        6.378000000000      25.776380118240      25.276875000000
      3539    2        7.972500000000      23.014625105571      23.332500000000
      3540    2        6.378000000000      25.776380118240      23.332500000000
      3541    1        6.378000000000      23.935210109794      22.684375000000
      3542    1        7.972500000000      26.696965122463      22.684375000000
      3543    2        6.378000000000      23.935210109794      20.740000000000
      3544    2        7.972500000000      26.696965122463      20.740000000000
      3545    1       11.161500000000      23.014625105571      25.276875000000
      3546    1        9.567000000000      25.776380118240      25.276875000000
      3547    2       11.161500000000      23.014625105571      23.332500000000
      3548    2        9.567000000000      25.776380118240      23.332500000000
      3549    1        9.567000000000      23.935210109794      22.684375000000
      3550    1       11.161500000000      26.696965122463      22.684375000000
      3551    2        9.567000000000      23.935210109794      20.740000000000
      3552    2       11.161500000000      26.696965122463      20.740000000000
      3553    1       14.350500000000      23.014625105571      25.276875000000
      3554    1       12.756000000000      25.776380118240      25.276875000000
      3555    2       14.350500000000      23.014625105571      23.332500000000
      3556    2       12.756000000000      25.776380118240      23.332500000000
      3557    1       12.756000000000      23.935210109794      22.684375000000
      3558    1       14.350500000000      26.696965122463      22.684375000000
      3559    2       12.756000000000      23.935210109794      20.740000000000
      3560    2       14.350500000000      26.696965122463      20.740000000000
      3561    1       17.539500000000      23.014625105571      25.276875000000
      3562    1       15.945000000000      25.776380118240      25.276875000000
      3563    2       17.539500000000      23.014625105571      23.332500000000
      3564    2       15.945000000000      25.776380118240      23.332500000000
      3565    1       15.945000000000      23.935210109794      22.684375000000
      3566    1       17.539500000000      26.696965122463      22.684375000000
      3567    2       15.945000000000      23.935210109794      20.740000000000
      3568    2       17.539500000000      26.696965122463      20.740000000000
      3569    1       20.728500000000      23.014625105571      25.276875000000
      3570    1       19.134000000000      25.776380118240      25.276875000000
      3571    2       20.728500000000      23.014625105571      23.332500000000
      3572    2       19.134000000000      25.776380118240      23.332500000000
      3573    1       19.134000000000      23.935210109794      22.684375000000
      3574    1       20.728500000000      26.696965122463      22.684375000000
      3575    2       19.134000000000      23.935210109794      20.740000000000
      3576    2       20.728500000000      26.696965122463      20.740000000000
      3577    1       23.917500000000      23.014625105571      25.276875000000
      3578    1       22.323000000000      25.776380118240      25.276875000000
      3579    2       23.917500000000      23.014625105571      23.332500000000
      3580    2       22.323000000000      25.776380118240      23.332500000000
      3581    1       22.323000000000      23.935210109794      22.684375000000
      3582    1       23.917500000000      26.696965122463      22.684375000000
      3583    2       22.323000000000      23.935210109794      20.740000000000
      3584    2       23.917500000000      26.696965122463      20.740000000000
      3585    1       27.106500000000      23.014625105571      25.276875000000
      3586    1       25.512000000000      25.776380118240      25.276875000000
      3587    2       27.106500000000      23.014625105571      23.332500000000
      3588    2       25.512000000000      25.776380118240      23.332500000000
      3589    1       25.512000000000      23.935210109794      22.684375000000
      3590    1       27.106500000000      26.696965122463      22.684375000000
      3591    2       25.512000000000      23.935210109794      20.740000000000
      3592    2       27.106500000000      26.696965122463      20.740000000000
      3593    1       30.295500000000      23.014625105571      25.276875000000
      3594    1       28.701000000000      25.776380118240      25.276875000000
      3595    2       30.295500000000      23.014625105571      23.332500000000
      3596    2       28.701000000000      25.776380118240      23.332500000000
      3597    1       28.701000000000      23.935210109794      22.684375000000
      3598    1       30.295500000000      26.696965122463      22.684375000000
      3599    2       28.701000000000      23.935210109794      20.740000000000
      3600    2       30.295500000000      26.696965122463      20.740000000000
      3601    1        1.594500000000      28.538135130909      25.276875000000
      3602    1        0.000000000000      31.299890143577      25.276875000000
      3603    2        1.594500000000      28.538135130909      23.332500000000
      3604    2        0.000000000000      31.299890143577      23.332500000000
      3605    1        0.000000000000      29.458720135131      22.684375000000
      3606    1        1.594500000000      32.220475147800      22.684375000000
      3607    2        0.000000000000      29.458720135131      20.740000000000
      3608    2        1.594500000000      32.220475147800      20.740000000000
      3609    1        4.783500000000      28.538135130909      25.276875000000
      3610    1        3.189000000000      31.299890143577      25.276875000000
      3611    2        4.783500000000      28.538135130909      23.332500000000
      3612    2        3.189000000000      31.299890143577      23.332500000000
      3613    1        3.189000000000      29.458720135131      22.684375000000
      3614    1        4.783500000000      32.220475147800      22.684375000000
      3615    2        3.189000000000      29.458720135131      20.740000000000
      3616    2        4.783500000000      32.220475147800      20.740000000000
      3617    1        7.972500000000      28.538135130909      25.276875000000
      3618    1        6.378000000000      31.299890143577      25.276875000000
      3619    2        7.972500000000      28.538135130909      23.332500000000
      3620    2        6.378000000000      31.299890143577      23.332500000000
      3621    1        6.378000000000      29.458720135131      22.684375000000
      3622    1        7.972500000000      32.220475147800      22.684375000000
      3623    2        6.378000000000      29.458720135131      20.740000000000
      3624    2        7.972500000000      32.220475147800      20.740000000000
      3625    1       11.161500000000      28.538135130909      25.276875000000
      3626    1        9.567000000000      31.299890143577      25.276875000000
      3627    2       11.161500000000      28.538135130909      23.332500000000
      3628    2        9.567000000000      31.299890143577      23.332500000000
      3629    1        9.567000000000      29.458720135131      22.684375000000
      3630    1       11.161500000000      32.220475147800      22.684375000000
      3631    2        9.567000000000      29.458720135131      20.740000000000
      3632    2       11.161500000000      32.220475147800      20.740000000000
      3633    1       14.350500000000      28.538135130909      25.276875000000
      3634    1       12.756000000000      31.299890143577      25.276875000000
      3635    2       14.350500000000      28.538135130909      23.332500000000
      3636    2       12.756000000000      31.299890143577      23.332500000000
      3637    1       12.756000000000      29.458720135131      22.684375000000
      3638    1       14.350500000000      32.220475147800      22.684375000000
      3639    2       12.756000000000      29.458720135131      20.740000000000
      3640    2       14.350500000000      32.220475147800      20.740000000000
      3641    1       17.539500000000      28.538135130909      25.276875000000
      3642    1       15.945000000000      31.299890143577      25.276875000000
      3643    2       17.539500000000      28.538135130909      23.332500000000
      3644    2       15.945000000000      31.299890143577      23.332500000000
      3645    1       15.945000000000      29.458720135131      22.684375000000
      3646    1       17.539500000000      32.220475147800      22.684375000000
      3647    2       15.945000000000      29.458720135131      20.740000000000
      3648    2       17.539500000000      32.220475147800      20.740000000000
      3649    1       20.728500000000      28.538135130909      25.276875000000
      3650    1       19.134000000000      31.299890143577      25.276875000000
      3651    2       20.728500000000      28.538135130909      23.332500000000
      3652    2       19.134000000000      31.299890143577      23.332500000000
      3653    1       19.134000000000      29.458720135131      22.684375000000
      3654    1       20.728500000000      32.220475147800      22.684375000000
      3655    2       19.134000000000      29.458720135131      20.740000000000
      3656    2       20.728500000000      32.220475147800      20.740000000000
      3657    1       23.917500000000      28.538135130909      25.276875000000
      3658    1       22.323000000000      31.299890143577      25.276875000000
      3659    2       23.917500000000      28.538135130909      23.332500000000
      3660    2       22.323000000000      31.299890143577      23.332500000000
      3661    1       22.323000000000      29.458720135131      22.684375000000
      3662    1       23.917500000000      32.220475147800      22.684375000000
      3663    2       22.323000000000      29.458720135131      20.740000000000
      3664    2       23.917500000000      32.220475147800      20.740000000000
      3665    1       27.106500000000      28.538135130909      25.276875000000
      3666    1       25.512000000000      31.299890143577      25.276875000000
      3667    2       27.106500000000      28.538135130909      23.332500000000
      3668    2       25.512000000000      31.299890143577      23.332500000000
      3669    1       25.512000000000      29.458720135131      22.684375000000
      3670    1       27.106500000000      32.220475147800      22.684375000000
      3671    2       25.512000000000      29.458720135131      20.740000000000
      3672    2       27.106500000000      32.220475147800      20.740000000000
      3673    1       30.295500000000      28.538135130909      25.276875000000
      3674    1       28.701000000000      31.299890143577      25.276875000000
      3675    2       30.295500000000      28.538135130909      23.332500000000
      3676    2       28.701000000000      31.299890143577      23.332500000000
      3677    1       28.701000000000      29.458720135131      22.684375000000
      3678    1       30.295500000000      32.220475147800      22.684375000000
      3679    2       28.701000000000      29.458720135131      20.740000000000
      3680    2       30.295500000000      32.220475147800      20.740000000000
      3681    1        1.594500000000      34.061645156246      25.276875000000
      3682    1        0.000000000000      36.823400168914      25.276875000000
      3683    2        1.594500000000      34.061645156246      23.332500000000
      3684    2        0.000000000000      36.823400168914      23.332500000000
      3685    1        0.000000000000      34.982230160469      22.684375000000
      3686    1        1.594500000000      37.743985173137      22.684375000000
      3687    2        0.000000000000      34.982230160469      20.740000000000
      3688    2        1.594500000000      37.743985173137      20.740000000000
      3689    1        4.783500000000      34.061645156246      25.276875000000
      3690    1        3.189000000000      36.823400168914      25.276875000000
      3691    2        4.783500000000      34.061645156246      23.332500000000
      3692    2        3.189000000000      36.823400168914      23.332500000000
      3693    1        3.189000000000      34.982230160469      22.684375000000
      3694    1        4.783500000000      37.743985173137      22.684375000000
      3695    2        3.189000000000      34.982230160469      20.740000000000
      3696    2        4.783500000000      37.743985173137      20.740000000000
      3697    1        7.972500000000      34.061645156246      25.276875000000
      3698    1        6.378000000000      36.823400168914      25.276875000000
      3699    2        7.972500000000      34.061645156246      23.332500000000
      3700    2        6.378000000000      36.823400168914      23.332500000000
      3701    1        6.378000000000      34.982230160469      22.684375000000
      3702    1        7.972500000000      37.743985173137      22.684375000000
      3703    2        6.378000000000      34.982230160469      20.740000000000
      3704    2        7.972500000000      37.743985173137      20.740000000000
      3705    1       11.161500000000      34.061645156246      25.276875000000
      3706    1        9.567000000000      36.823400168914      25.276875000000
      3707    2       11.161500000000      34.061645156246      23.332500000000
      3708    2        9.567000000000      36.823400168914      23.332500000000
      3709    1        9.567000000000      34.982230160469      22.684375000000
      3710    1       11.161500000000      37.743985173137      22.684375000000
      3711    2        9.567000000000      34.982230160469      20.740000000000
      3712    2       11.161500000000      37.743985173137      20.740000000000
      3713    1       14.350500000000      34.061645156246      25.276875000000
      3714    1       12.756000000000      36.823400168914      25.276875000000
      3715    2       14.350500000000      34.061645156246      23.332500000000
      3716    2       12.756000000000      36.823400168914      23.332500000000
      3717    1       12.756000000000      34.982230160469      22.684375000000
      3718    1       14.350500000000      37.743985173137      22.684375000000
      3719    2       12.756000000000      34.982230160469      20.740000000000
      3720    2       14.350500000000      37.743985173137      20.740000000000
      3721    1       17.539500000000      34.061645156246      25.276875000000
      3722    1       15.945000000000      36.823400168914      25.276875000000
      3723    2       17.539500000000      34.061645156246      23.332500000000
      3724    2       15.945000000000      36.823400168914      23.332500000000
      3725    1       15.945000000000      34.982230160469      22.684375000000
      3726    1       17.539500000000      37.743985173137      22.684375000000
      3727    2       15.945000000000      34.982230160469      20.740000000000
      3728    2       17.539500000000      37.743985173137      20.740000000000
      3729    1       20.728500000000      34.061645156246      25.276875000000
      3730    1       19.134000000000      36.823400168914      25.276875000000
      3731    2       20.728500000000      34.061645156246      23.332500000000
      3732    2       19.134000000000      36.823400168914      23.332500000000
      3733    1       19.134000000000      34.982230160469      22.684375000000
      3734    1       20.728500000000      37.743985173137      22.684375000000
      3735    2       19.134000000000      34.982230160469      20.740000000000
      3736    2       20.728500000000      37.743985173137      20.740000000000
      3737    1       23.917500000000      34.061645156246      25.276875000000
      3738    1       22.323000000000      36.823400168914      25.276875000000
      3739    2       23.917500000000      34.061645156246      23.332500000000
      3740    2       22.323000000000      36.823400168914      23.332500000000
      3741    1       22.323000000000      34.982230160469      22.684375000000
      3742    1       23.917500000000      37.743985173137      22.684375000000
      3743    2       22.323000000000      34.982230160469      20.740000000000
      3744    2       23.917500000000      37.743985173137      20.740000000000
      3745    1       27.106500000000      34.061645156246      25.276875000000
      3746    1       25.512000000000      36.823400168914      25.276875000000
      3747    2       27.106500000000      34.061645156246      23.332500000000
      3748    2       25.512000000000      36.823400168914      23.332500000000
      3749    1       25.512000000000      34.982230160469      22.684375000000
      3750    1       27.106500000000      37.743985173137      22.684375000000
      3751    2       25.512000000000      34.982230160469      20.740000000000
      3752    2       27.106500000000      37.743985173137      20.740000000000
      3753    1       30.295500000000      34.061645156246      25.276875000000
      3754    1       28.701000000000      36.823400168914      25.276875000000
      3755    2       30.295500000000      34.061645156246      23.332500000000
      3756    2       28.701000000000      36.823400168914      23.332500000000
      3757    1       28.701000000000      34.982230160469      22.684375000000
      3758    1       30.295500000000      37.743985173137      22.684375000000
      3759    2       28.701000000000      34.982230160469      20.740000000000
      3760    2       30.295500000000      37.743985173137      20.740000000000
      3761    1        1.594500000000      39.585155181583      25.276875000000
      3762    1        0.000000000000      42.346910194251      25.276875000000
      3763    2        1.594500000000      39.585155181583      23.332500000000
      3764    2        0.000000000000      42.346910194251      23.332500000000
      3765    1        0.000000000000      40.505740185806      22.684375000000
      3766    1        1.594500000000      43.267495198474      22.684375000000
      3767    2        0.000000000000      40.505740185806      20.740000000000
      3768    2        1.594500000000      43.267495198474      20.740000000000
      3769    1        4.783500000000      39.585155181583      25.276875000000
      3770    1        3.189000000000      42.346910194251      25.276875000000
      3771    2        4.783500000000      39.585155181583      23.332500000000
      3772    2        3.189000000000      42.346910194251      23.332500000000
      3773    1        3.189000000000      40.505740185806      22.684375000000
      3774    1        4.783500000000      43.267495198474      22.684375000000
      3775    2        3.189000000000      40.505740185806      20.740000000000
      3776    2        4.783500000000      43.267495198474      20.740000000000
      3777    1        7.972500000000      39.585155181583      25.276875000000
      3778    1        6.378000000000      42.346910194251      25.276875000000
      3779    2        7.972500000000      39.585155181583      23.332500000000
      3780    2        6.378000000000      42.346910194251      23.332500000000
      3781    1        6.378000000000      40.505740185806      22.684375000000
      3782    1        7.972500000000      43.267495198474      22.684375000000
      3783    2        6.378000000000      40.505740185806      20.740000000000
      3784    2        7.972500000000      43.267495198474      20.740000000000
      3785    1       11.161500000000      39.585155181583      25.276875000000
      3786    1        9.567000000000      42.346910194251      25.276875000000
      3787    2       11.161500000000      39.585155181583      23.332500000000
      3788    2        9.567000000000      42.346910194251      23.332500000000
      3789    1        9.567000000000      40.505740185806      22.684375000000
      3790    1       11.161500000000      43.267495198474      22.684375000000
      3791    2        9.567000000000      40.505740185806      20.740000000000
      3792    2       11.161500000000      43.267495198474      20.740000000000
      3793    1       14.350500000000      39.585155181583      25.276875000000
      3794    1       12.756000000000      42.346910194251      25.276875000000
      3795    2       14.350500000000      39.585155181583      23.332500000000
      3796    2       12.756000000000      42.346910194251      23.332500000000
      3797    1       12.756000000000      40.505740185806      22.684375000000
      3798    1       14.350500000000      43.267495198474      22.684375000000
      3799    2       12.756000000000      40.505740185806      20.740000000000
      3800    2       14.350500000000      43.267495198474      20.740000000000
      3801    1       17.539500000000      39.585155181583      25.276875000000
      3802    1       15.945000000000      42.346910194251      25.276875000000
      3803    2       17.539500000000      39.585155181583      23.332500000000
      3804    2       15.945000000000      42.346910194251      23.332500000000
      3805    1       15.945000000000      40.505740185806      22.684375000000
      3806    1       17.539500000000      43.267495198474      22.684375000000
      3807    2       15.945000000000      40.505740185806      20.740000000000
      3808    2       17.539500000000      43.267495198474      20.740000000000
      3809    1       20.728500000000      39.585155181583      25.276875000000
      3810    1       19.134000000000      42.346910194251      25.276875000000
      3811    2       20.728500000000      39.585155181583      23.332500000000
      3812    2       19.134000000000      42.346910194251      23.332500000000
      3813    1       19.134000000000      40.505740185806      22.684375000000
      3814    1       20.728500000000      43.267495198474      22.684375000000
      3815    2       19.134000000000      40.505740185806      20.740000000000
      3816    2       20.728500000000      43.267495198474      20.740000000000
      3817    1       23.917500000000      39.585155181583      25.276875000000
      3818    1       22.323000000000      42.346910194251      25.276875000000
      3819    2       23.917500000000      39.585155181583      23.332500000000
      3820    2       22.323000000000      42.346910194251      23.332500000000
      3821    1       22.323000000000      40.505740185806      22.684375000000
      3822    1       23.917500000000      43.267495198474      22.684375000000
      3823    2       22.323000000000      40.505740185806      20.740000000000
      3824    2       23.917500000000      43.267495198474      20.740000000000
      3825    1       27.106500000000      39.585155181583      25.276875000000
      3826    1       25.512000000000      42.346910194251      25.276875000000
      3827    2       27.106500000000      39.585155181583      23.332500000000
      3828    2       25.512000000000      42.346910194251      23.332500000000
      3829    1       25.512000000000      40.505740185806      22.684375000000
      3830    1       27.106500000000      43.267495198474      22.684375000000
      3831    2       25.512000000000      40.505740185806      20.740000000000
      3832    2       27.106500000000      43.267495198474      20.740000000000
      3833    1       30.295500000000      39.585155181583      25.276875000000
      3834    1       28.701000000000      42.346910194251      25.276875000000
      3835    2       30.295500000000      39.585155181583      23.332500000000
      3836    2       28.701000000000      42.346910194251      23.332500000000
      3837    1       28.701000000000      40.505740185806      22.684375000000
      3838    1       30.295500000000      43.267495198474      22.684375000000
      3839    2       28.701000000000      40.505740185806      20.740000000000
      3840    2       30.295500000000      43.267495198474      20.740000000000
      3841    1        1.594500000000      45.108665206920      25.276875000000
      3842    1        0.000000000000      47.870420219589      25.276875000000
      3843    2        1.594500000000      45.108665206920      23.332500000000
      3844    2        0.000000000000      47.870420219589      23.332500000000
      3845    1        0.000000000000      46.029250211143      22.684375000000
      3846    1        1.594500000000      48.791005223811      22.684375000000
      3847    2        0.000000000000      46.029250211143      20.740000000000
      3848    2        1.594500000000      48.791005223811      20.740000000000
      3849    1        4.783500000000      45.108665206920      25.276875000000
      3850    1        3.189000000000      47.870420219589      25.276875000000
      3851    2        4.783500000000      45.108665206920      23.332500000000
      3852    2        3.189000000000      47.870420219589      23.332500000000
      3853    1        3.189000000000      46.029250211143      22.684375000000
      3854    1        4.783500000000      48.791005223811      22.684375000000
      3855    2        3.189000000000      46.029250211143      20.740000000000
      3856    2        4.783500000000      48.791005223811      20.740000000000
      3857    1        7.972500000000      45.108665206920      25.276875000000
      3858    1        6.378000000000      47.870420219589      25.276875000000
      3859    2        7.972500000000      45.108665206920      23.332500000000
      3860    2        6.378000000000      47.870420219589      23.332500000000
      3861    1        6.378000000000      46.029250211143      22.684375000000
      3862    1        7.972500000000      48.791005223811      22.684375000000
      3863    2        6.378000000000      46.029250211143      20.740000000000
      3864    2        7.972500000000      48.791005223811      20.740000000000
      3865    1       11.161500000000      45.108665206920      25.276875000000
      3866    1        9.567000000000      47.870420219589      25.276875000000
      3867    2       11.161500000000      45.108665206920      23.332500000000
      3868    2        9.567000000000      47.870420219589      23.332500000000
      3869    1        9.567000000000      46.029250211143      22.684375000000
      3870    1       11.161500000000      48.791005223811      22.684375000000
      3871    2        9.567000000000      46.029250211143      20.740000000000
      3872    2       11.161500000000      48.791005223811      20.740000000000
      3873    1       14.350500000000      45.108665206920      25.276875000000
      3874    1       12.756000000000      47.870420219589      25.276875000000
      3875    2       14.350500000000      45.108665206920      23.332500000000
      3876    2       12.756000000000      47.870420219589      23.332500000000
      3877    1       12.756000000000      46.029250211143      22.684375000000
      3878    1       14.350500000000      48.791005223811      22.684375000000
      3879    2       12.756000000000      46.029250211143      20.740000000000
      3880    2       14.350500000000      48.791005223811      20.740000000000
      3881    1       17.539500000000      45.108665206920      25.276875000000
      3882    1       15.945000000000      47.870420219589      25.276875000000
      3883    2       17.539500000000      45.108665206920      23.332500000000
      3884    2       15.945000000000      47.870420219589      23.332500000000
      3885    1       15.945000000000      46.029250211143      22.684375000000
      3886    1       17.539500000000      48.791005223811      22.684375000000
      3887    2       15.945000000000      46.029250211143      20.740000000000
      3888    2       17.539500000000      48.791005223811      20.740000000000
      3889    1       20.728500000000      45.108665206920      25.276875000000
      3890    1       19.134000000000      47.870420219589      25.276875000000
      3891    2       20.728500000000      45.108665206920      23.332500000000
      3892    2       19.134000000000      47.870420219589      23.332500000000
      3893    1       19.134000000000      46.029250211143      22.684375000000
      3894    1       20.728500000000      48.791005223811      22.684375000000
      3895    2       19.134000000000      46.029250211143      20.740000000000
      3896    2       20.728500000000      48.791005223811      20.740000000000
      3897    1       23.917500000000      45.108665206920      25.276875000000
      3898    1       22.323000000000      47.870420219589      25.276875000000
      3899    2       23.917500000000      45.108665206920      23.332500000000
      3900    2       22.323000000000      47.870420219589      23.332500000000
      3901    1       22.323000000000      46.029250211143      22.684375000000
      3902    1       23.917500000000      48.791005223811      22.684375000000
      3903    2       22.323000000000      46.029250211143      20.740000000000
      3904    2       23.917500000000      48.791005223811      20.740000000000
      3905    1       27.106500000000      45.108665206920      25.276875000000
      3906    1       25.512000000000      47.870420219589      25.276875000000
      3907    2       27.106500000000      45.108665206920      23.332500000000
      3908    2       25.512000000000      47.870420219589      23.332500000000
      3909    1       25.512000000000      46.029250211143      22.684375000000
      3910    1       27.106500000000      48.791005223811      22.684375000000
      3911    2       25.512000000000      46.029250211143      20.740000000000
      3912    2       27.106500000000      48.791005223811      20.740000000000
      3913    1       30.295500000000      45.108665206920      25.276875000000
      3914    1       28.701000000000      47.870420219589      25.276875000000
      3915    2       30.295500000000      45.108665206920      23.332500000000
      3916    2       28.701000000000      47.870420219589      23.332500000000
      3917    1       28.701000000000      46.029250211143      22.684375000000
      3918    1       30.295500000000      48.791005223811      22.684375000000
      3919    2       28.701000000000      46.029250211143      20.740000000000
      3920    2       30.295500000000      48.791005223811      20.740000000000
      3921    1        1.594500000000      50.632175232257      25.276875000000
      3922    1        0.000000000000      53.393930244926      25.276875000000
      3923    2        1.594500000000      50.632175232257      23.332500000000
      3924    2        0.000000000000      53.393930244926      23.332500000000
      3925    1        0.000000000000      51.552760236480      22.684375000000
      3926    1        1.594500000000      54.314515249149      22.684375000000
      3927    2        0.000000000000      51.552760236480      20.740000000000
      3928    2        1.594500000000      54.314515249149      20.740000000000
      3929    1        4.783500000000      50.632175232257      25.276875000000
      3930    1        3.189000000000      53.393930244926      25.276875000000
      3931    2        4.783500000000      50.632175232257      23.332500000000
      3932    2        3.189000000000      53.393930244926      23.332500000000
      3933    1        3.189000000000      51.552760236480      22.684375000000
      3934    1        4.783500000000      54.314515249149      22.684375000000
      3935    2        3.189000000000      51.552760236480      20.740000000000
      3936    2        4.783500000000      54.314515249149      20.740000000000
      3937    1        7.972500000000      50.632175232257      25.276875000000
      3938    1        6.378000000000      53.393930244926      25.276875000000
      3939    2        7.972500000000      50.632175232257      23.332500000000
      3940    2        6.378000000000      53.393930244926      23.332500000000
      3941    1        6.378000000000      51.552760236480      22.684375000000
      3942    1        7.972500000000      54.314515249149      22.684375000000
      3943    2        6.378000000000      51.552760236480      20.740000000000
      3944    2        7.972500000000      54.314515249149      20.740000000000
      3945    1       11.161500000000      50.632175232257      25.276875000000
      3946    1        9.567000000000      53.393930244926      25.276875000000
      3947    2       11.161500000000      50.632175232257      23.332500000000
      3948    2        9.567000000000      53.393930244926      23.332500000000
      3949    1        9.567000000000      51.552760236480      22.684375000000
      3950    1       11.161500000000      54.314515249149      22.684375000000
      3951    2        9.567000000000      51.552760236480      20.740000000000
      3952    2       11.161500000000      54.314515249149      20.740000000000
      3953    1       14.350500000000      50.632175232257      25.276875000000
      3954    1       12.756000000000      53.393930244926      25.276875000000
      3955    2       14.350500000000      50.632175232257      23.332500000000
      3956    2       12.756000000000      53.393930244926      23.332500000000
      3957    1       12.756000000000      51.552760236480      22.684375000000
      3958    1       14.350500000000      54.314515249149      22.684375000000
      3959    2       12.756000000000      51.552760236480      20.740000000000
      3960    2       14.350500000000      54.314515249149      20.740000000000
      3961    1       17.539500000000      50.632175232257      25.276875000000
      3962    1       15.945000000000      53.393930244926      25.276875000000
      3963    2       17.539500000000      50.632175232257      23.332500000000
      3964    2       15.945000000000      53.393930244926      23.332500000000
      3965    1       15.945000000000      51.552760236480      22.684375000000
      3966    1       17.539500000000      54.314515249149      22.684375000000
      3967    2       15.945000000000      51.552760236480      20.740000000000
      3968    2       17.539500000000      54.314515249149      20.740000000000
      3969    1       20.728500000000      50.632175232257      25.276875000000
      3970    1       19.134000000000      53.393930244926      25.276875000000
      3971    2       20.728500000000      50.632175232257      23.332500000000
      3972    2       19.134000000000      53.393930244926      23.332500000000
      3973    1       19.134000000000      51.552760236480      22.684375000000
      3974    1       20.728500000000      54.314515249149      22.684375000000
      3975    2       19.134000000000      51.552760236480      20.740000000000
      3976    2       20.728500000000      54.314515249149      20.740000000000
      3977    1       23.917500000000      50.632175232257      25.276875000000
      3978    1       22.323000000000      53.393930244926      25.276875000000
      3979    2       23.917500000000      50.632175232257      23.332500000000
      3980    2       22.323000000000      53.393930244926      23.332500000000
      3981    1       22.323000000000      51.552760236480      22.684375000000
      3982    1       23.917500000000      54.314515249149      22.684375000000
      3983    2       22.323000000000      51.552760236480      20.740000000000
      3984    2       23.917500000000      54.314515249149      20.740000000000
      3985    1       27.106500000000      50.632175232257      25.276875000000
      3986    1       25.512000000000      53.393930244926      25.276875000000
      3987    2       27.106500000000      50.632175232257      23.332500000000
      3988    2       25.512000000000      53.393930244926      23.332500000000
      3989    1       25.512000000000      51.552760236480      22.684375000000
      3990    1       27.106500000000      54.314515249149      22.684375000000
      3991    2       25.512000000000      51.552760236480      20.740000000000
      3992    2       27.106500000000      54.314515249149      20.740000000000
      3993    1       30.295500000000      50.632175232257      25.276875000000
      3994    1       28.701000000000      53.393930244926      25.276875000000
      3995    2       30.295500000000      50.632175232257      23.332500000000
      3996    2       28.701000000000      53.393930244926      23.332500000000
      3997    1       28.701000000000      51.552760236480      22.684375000000
      3998    1       30.295500000000      54.314515249149      22.684375000000
      3999    2       28.701000000000      51.552760236480      20.740000000000
      4000    2       30.295500000000      54.314515249149      20.740000000000
