 # GaN with wurtzite structure with box vectors H1=[2-1-10], H2=[-12-10], H3=[0001].
  
        4000  atoms
           2  atom types
 
      0.000000000000      31.890000000000  xlo xhi
      0.000000000000      27.617550126686  ylo yhi
      0.000000000000      51.850000000000  zlo zhi
 
Masses
 
            1   14.00700000             # N
            2   69.72300000             # Ga
 
Atoms # atomic
 
         1    1        1.594500000000       0.920585004223       4.536875000000
         2    1        0.000000000000       3.682340016891       4.536875000000
         3    1        0.000000000000       1.841170008446       1.944375000000
         4    1        1.594500000000       4.602925021114       1.944375000000
         5    2        1.594500000000       0.920585004223       2.592500000000
         6    2        0.000000000000       3.682340016891       2.592500000000
         7    2        0.000000000000       1.841170008446       0.000000000000
         8    2        1.594500000000       4.602925021114       0.000000000000
         9    1        4.783500000000       0.920585004223       4.536875000000
        10    1        3.189000000000       3.682340016891       4.536875000000
        11    1        3.189000000000       1.841170008446       1.944375000000
        12    1        4.783500000000       4.602925021114       1.944375000000
        13    2        4.783500000000       0.920585004223       2.592500000000
        14    2        3.189000000000       3.682340016891       2.592500000000
        15    2        3.189000000000       1.841170008446       0.000000000000
        16    2        4.783500000000       4.602925021114       0.000000000000
        17    1        7.972500000000       0.920585004223       4.536875000000
        18    1        6.378000000000       3.682340016891       4.536875000000
        19    1        6.378000000000       1.841170008446       1.944375000000
        20    1        7.972500000000       4.602925021114       1.944375000000
        21    2        7.972500000000       0.920585004223       2.592500000000
        22    2        6.378000000000       3.682340016891       2.592500000000
        23    2        6.378000000000       1.841170008446       0.000000000000
        24    2        7.972500000000       4.602925021114       0.000000000000
        25    1       11.161500000000       0.920585004223       4.536875000000
        26    1        9.567000000000       3.682340016891       4.536875000000
        27    1        9.567000000000       1.841170008446       1.944375000000
        28    1       11.161500000000       4.602925021114       1.944375000000
        29    2       11.161500000000       0.920585004223       2.592500000000
        30    2        9.567000000000       3.682340016891       2.592500000000
        31    2        9.567000000000       1.841170008446       0.000000000000
        32    2       11.161500000000       4.602925021114       0.000000000000
        33    1       14.350500000000       0.920585004223       4.536875000000
        34    1       12.756000000000       3.682340016891       4.536875000000
        35    1       12.756000000000       1.841170008446       1.944375000000
        36    1       14.350500000000       4.602925021114       1.944375000000
        37    2       14.350500000000       0.920585004223       2.592500000000
        38    2       12.756000000000       3.682340016891       2.592500000000
        39    2       12.756000000000       1.841170008446       0.000000000000
        40    2       14.350500000000       4.602925021114       0.000000000000
        41    1       17.539500000000       0.920585004223       4.536875000000
        42    1       15.945000000000       3.682340016891       4.536875000000
        43    1       15.945000000000       1.841170008446       1.944375000000
        44    1       17.539500000000       4.602925021114       1.944375000000
        45    2       17.539500000000       0.920585004223       2.592500000000
        46    2       15.945000000000       3.682340016891       2.592500000000
        47    2       15.945000000000       1.841170008446       0.000000000000
        48    2       17.539500000000       4.602925021114       0.000000000000
        49    1       20.728500000000       0.920585004223       4.536875000000
        50    1       19.134000000000       3.682340016891       4.536875000000
        51    1       19.134000000000       1.841170008446       1.944375000000
        52    1       20.728500000000       4.602925021114       1.944375000000
        53    2       20.728500000000       0.920585004223       2.592500000000
        54    2       19.134000000000       3.682340016891       2.592500000000
        55    2       19.134000000000       1.841170008446       0.000000000000
        56    2       20.728500000000       4.602925021114       0.000000000000
        57    1       23.917500000000       0.920585004223       4.536875000000
        58    1       22.323000000000       3.682340016891       4.536875000000
        59    1       22.323000000000       1.841170008446       1.944375000000
        60    1       23.917500000000       4.602925021114       1.944375000000
        61    2       23.917500000000       0.920585004223       2.592500000000
        62    2       22.323000000000       3.682340016891       2.592500000000
        63    2       22.323000000000       1.841170008446       0.000000000000
        64    2       23.917500000000       4.602925021114       0.000000000000
        65    1       27.106500000000       0.920585004223       4.536875000000
        66    1       25.512000000000       3.682340016891       4.536875000000
        67    1       25.512000000000       1.841170008446       1.944375000000
        68    1       27.106500000000       4.602925021114       1.944375000000
        69    2       27.106500000000       0.920585004223       2.592500000000
        70    2       25.512000000000       3.682340016891       2.592500000000
        71    2       25.512000000000       1.841170008446       0.000000000000
        72    2       27.106500000000       4.602925021114       0.000000000000
        73    1       30.295500000000       0.920585004223       4.536875000000
        74    1       28.701000000000       3.682340016891       4.536875000000
        75    1       28.701000000000       1.841170008446       1.944375000000
        76    1       30.295500000000       4.602925021114       1.944375000000
        77    2       30.295500000000       0.920585004223       2.592500000000
        78    2       28.701000000000       3.682340016891       2.592500000000
        79    2       28.701000000000       1.841170008446       0.000000000000
        80    2       30.295500000000       4.602925021114       0.000000000000
        81    1        1.594500000000       6.444095029560       4.536875000000
        82    1        0.000000000000       9.205850042229       4.536875000000
        83    1        0.000000000000       7.364680033783       1.944375000000
        84    1        1.594500000000      10.126435046451       1.944375000000
        85    2        1.594500000000       6.444095029560       2.592500000000
        86    2        0.000000000000       9.205850042229       2.592500000000
        87    2        0.000000000000       7.364680033783       0.000000000000
        88    2        1.594500000000      10.126435046451       0.000000000000
        89    1        4.783500000000       6.444095029560       4.536875000000
        90    1        3.189000000000       9.205850042229       4.536875000000
        91    1        3.189000000000       7.364680033783       1.944375000000
        92    1        4.783500000000      10.126435046451       1.944375000000
        93    2        4.783500000000       6.444095029560       2.592500000000
        94    2        3.189000000000       9.205850042229       2.592500000000
        95    2        3.189000000000       7.364680033783       0.000000000000
        96    2        4.783500000000      10.126435046451       0.000000000000
        97    1        7.972500000000       6.444095029560       4.536875000000
        98    1        6.378000000000       9.205850042229       4.536875000000
        99    1        6.378000000000       7.364680033783       1.944375000000
       100    1        7.972500000000      10.126435046451       1.944375000000
       101    2        7.972500000000       6.444095029560       2.592500000000
       102    2        6.378000000000       9.205850042229       2.592500000000
       103    2        6.378000000000       7.364680033783       0.000000000000
       104    2        7.972500000000      10.126435046451       0.000000000000
       105    1       11.161500000000       6.444095029560       4.536875000000
       106    1        9.567000000000       9.205850042229       4.536875000000
       107    1        9.567000000000       7.364680033783       1.944375000000
       108    1       11.161500000000      10.126435046451       1.944375000000
       109    2       11.161500000000       6.444095029560       2.592500000000
       110    2        9.567000000000       9.205850042229       2.592500000000
       111    2        9.567000000000       7.364680033783       0.000000000000
       112    2       11.161500000000      10.126435046451       0.000000000000
       113    1       14.350500000000       6.444095029560       4.536875000000
       114    1       12.756000000000       9.205850042229       4.536875000000
       115    1       12.756000000000       7.364680033783       1.944375000000
       116    1       14.350500000000      10.126435046451       1.944375000000
       117    2       14.350500000000       6.444095029560       2.592500000000
       118    2       12.756000000000       9.205850042229       2.592500000000
       119    2       12.756000000000       7.364680033783       0.000000000000
       120    2       14.350500000000      10.126435046451       0.000000000000
       121    1       17.539500000000       6.444095029560       4.536875000000
       122    1       15.945000000000       9.205850042229       4.536875000000
       123    1       15.945000000000       7.364680033783       1.944375000000
       124    1       17.539500000000      10.126435046451       1.944375000000
       125    2       17.539500000000       6.444095029560       2.592500000000
       126    2       15.945000000000       9.205850042229       2.592500000000
       127    2       15.945000000000       7.364680033783       0.000000000000
       128    2       17.539500000000      10.126435046451       0.000000000000
       129    1       20.728500000000       6.444095029560       4.536875000000
       130    1       19.134000000000       9.205850042229       4.536875000000
       131    1       19.134000000000       7.364680033783       1.944375000000
       132    1       20.728500000000      10.126435046451       1.944375000000
       133    2       20.728500000000       6.444095029560       2.592500000000
       134    2       19.134000000000       9.205850042229       2.592500000000
       135    2       19.134000000000       7.364680033783       0.000000000000
       136    2       20.728500000000      10.126435046451       0.000000000000
       137    1       23.917500000000       6.444095029560       4.536875000000
       138    1       22.323000000000       9.205850042229       4.536875000000
       139    1       22.323000000000       7.364680033783       1.944375000000
       140    1       23.917500000000      10.126435046451       1.944375000000
       141    2       23.917500000000       6.444095029560       2.592500000000
       142    2       22.323000000000       9.205850042229       2.592500000000
       143    2       22.323000000000       7.364680033783       0.000000000000
       144    2       23.917500000000      10.126435046451       0.000000000000
       145    1       27.106500000000       6.444095029560       4.536875000000
       146    1       25.512000000000       9.205850042229       4.536875000000
       147    1       25.512000000000       7.364680033783       1.944375000000
       148    1       27.106500000000      10.126435046451       1.944375000000
       149    2       27.106500000000       6.444095029560       2.592500000000
       150    2       25.512000000000       9.205850042229       2.592500000000
       151    2       25.512000000000       7.364680033783       0.000000000000
       152    2       27.106500000000      10.126435046451       0.000000000000
       153    1       30.295500000000       6.444095029560       4.536875000000
       154    1       28.701000000000       9.205850042229       4.536875000000
       155    1       28.701000000000       7.364680033783       1.944375000000
       156    1       30.295500000000      10.126435046451       1.944375000000
       157    2       30.295500000000       6.444095029560       2.592500000000
       158    2       28.701000000000       9.205850042229       2.592500000000
       159    2       28.701000000000       7.364680033783       0.000000000000
       160    2       30.295500000000      10.126435046451       0.000000000000
       161    1        1.594500000000      11.967605054897       4.536875000000
       162    1        0.000000000000      14.729360067566       4.536875000000
       163    1        0.000000000000      12.888190059120       1.944375000000
       164    1        1.594500000000      15.649945071789       1.944375000000
       165    2        1.594500000000      11.967605054897       2.592500000000
       166    2        0.000000000000      14.729360067566       2.592500000000
       167    2        0.000000000000      12.888190059120       0.000000000000
       168    2        1.594500000000      15.649945071789       0.000000000000
       169    1        4.783500000000      11.967605054897       4.536875000000
       170    1        3.189000000000      14.729360067566       4.536875000000
       171    1        3.189000000000      12.888190059120       1.944375000000
       172    1        4.783500000000      15.649945071789       1.944375000000
       173    2        4.783500000000      11.967605054897       2.592500000000
       174    2        3.189000000000      14.729360067566       2.592500000000
       175    2        3.189000000000      12.888190059120       0.000000000000
       176    2        4.783500000000      15.649945071789       0.000000000000
       177    1        7.972500000000      11.967605054897       4.536875000000
       178    1        6.378000000000      14.729360067566       4.536875000000
       179    1        6.378000000000      12.888190059120       1.944375000000
       180    1        7.972500000000      15.649945071789       1.944375000000
       181    2        7.972500000000      11.967605054897       2.592500000000
       182    2        6.378000000000      14.729360067566       2.592500000000
       183    2        6.378000000000      12.888190059120       0.000000000000
       184    2        7.972500000000      15.649945071789       0.000000000000
       185    1       11.161500000000      11.967605054897       4.536875000000
       186    1        9.567000000000      14.729360067566       4.536875000000
       187    1        9.567000000000      12.888190059120       1.944375000000
       188    1       11.161500000000      15.649945071789       1.944375000000
       189    2       11.161500000000      11.967605054897       2.592500000000
       190    2        9.567000000000      14.729360067566       2.592500000000
       191    2        9.567000000000      12.888190059120       0.000000000000
       192    2       11.161500000000      15.649945071789       0.000000000000
       193    1       14.350500000000      11.967605054897       4.536875000000
       194    1       12.756000000000      14.729360067566       4.536875000000
       195    1       12.756000000000      12.888190059120       1.944375000000
       196    1       14.350500000000      15.649945071789       1.944375000000
       197    2       14.350500000000      11.967605054897       2.592500000000
       198    2       12.756000000000      14.729360067566       2.592500000000
       199    2       12.756000000000      12.888190059120       0.000000000000
       200    2       14.350500000000      15.649945071789       0.000000000000
       201    1       17.539500000000      11.967605054897       4.536875000000
       202    1       15.945000000000      14.729360067566       4.536875000000
       203    1       15.945000000000      12.888190059120       1.944375000000
       204    1       17.539500000000      15.649945071789       1.944375000000
       205    2       17.539500000000      11.967605054897       2.592500000000
       206    2       15.945000000000      14.729360067566       2.592500000000
       207    2       15.945000000000      12.888190059120       0.000000000000
       208    2       17.539500000000      15.649945071789       0.000000000000
       209    1       20.728500000000      11.967605054897       4.536875000000
       210    1       19.134000000000      14.729360067566       4.536875000000
       211    1       19.134000000000      12.888190059120       1.944375000000
       212    1       20.728500000000      15.649945071789       1.944375000000
       213    2       20.728500000000      11.967605054897       2.592500000000
       214    2       19.134000000000      14.729360067566       2.592500000000
       215    2       19.134000000000      12.888190059120       0.000000000000
       216    2       20.728500000000      15.649945071789       0.000000000000
       217    1       23.917500000000      11.967605054897       4.536875000000
       218    1       22.323000000000      14.729360067566       4.536875000000
       219    1       22.323000000000      12.888190059120       1.944375000000
       220    1       23.917500000000      15.649945071789       1.944375000000
       221    2       23.917500000000      11.967605054897       2.592500000000
       222    2       22.323000000000      14.729360067566       2.592500000000
       223    2       22.323000000000      12.888190059120       0.000000000000
       224    2       23.917500000000      15.649945071789       0.000000000000
       225    1       27.106500000000      11.967605054897       4.536875000000
       226    1       25.512000000000      14.729360067566       4.536875000000
       227    1       25.512000000000      12.888190059120       1.944375000000
       228    1       27.106500000000      15.649945071789       1.944375000000
       229    2       27.106500000000      11.967605054897       2.592500000000
       230    2       25.512000000000      14.729360067566       2.592500000000
       231    2       25.512000000000      12.888190059120       0.000000000000
       232    2       27.106500000000      15.649945071789       0.000000000000
       233    1       30.295500000000      11.967605054897       4.536875000000
       234    1       28.701000000000      14.729360067566       4.536875000000
       235    1       28.701000000000      12.888190059120       1.944375000000
       236    1       30.295500000000      15.649945071789       1.944375000000
       237    2       30.295500000000      11.967605054897       2.592500000000
       238    2       28.701000000000      14.729360067566       2.592500000000
       239    2       28.701000000000      12.888190059120       0.000000000000
       240    2       30.295500000000      15.649945071789       0.000000000000
       241    1        1.594500000000      17.491115080234       4.536875000000
       242    1        0.000000000000      20.252870092903       4.536875000000
       243    1        0.000000000000      18.411700084457       1.944375000000
       244    1        1.594500000000      21.173455097126       1.944375000000
       245    2        1.594500000000      17.491115080234       2.592500000000
       246    2        0.000000000000      20.252870092903       2.592500000000
       247    2        0.000000000000      18.411700084457       0.000000000000
       248    2        1.594500000000      21.173455097126       0.000000000000
       249    1        4.783500000000      17.491115080234       4.536875000000
       250    1        3.189000000000      20.252870092903       4.536875000000
       251    1        3.189000000000      18.411700084457       1.944375000000
       252    1        4.783500000000      21.173455097126       1.944375000000
       253    2        4.783500000000      17.491115080234       2.592500000000
       254    2        3.189000000000      20.252870092903       2.592500000000
       255    2        3.189000000000      18.411700084457       0.000000000000
       256    2        4.783500000000      21.173455097126       0.000000000000
       257    1        7.972500000000      17.491115080234       4.536875000000
       258    1        6.378000000000      20.252870092903       4.536875000000
       259    1        6.378000000000      18.411700084457       1.944375000000
       260    1        7.972500000000      21.173455097126       1.944375000000
       261    2        7.972500000000      17.491115080234       2.592500000000
       262    2        6.378000000000      20.252870092903       2.592500000000
       263    2        6.378000000000      18.411700084457       0.000000000000
       264    2        7.972500000000      21.173455097126       0.000000000000
       265    1       11.161500000000      17.491115080234       4.536875000000
       266    1        9.567000000000      20.252870092903       4.536875000000
       267    1        9.567000000000      18.411700084457       1.944375000000
       268    1       11.161500000000      21.173455097126       1.944375000000
       269    2       11.161500000000      17.491115080234       2.592500000000
       270    2        9.567000000000      20.252870092903       2.592500000000
       271    2        9.567000000000      18.411700084457       0.000000000000
       272    2       11.161500000000      21.173455097126       0.000000000000
       273    1       14.350500000000      17.491115080234       4.536875000000
       274    1       12.756000000000      20.252870092903       4.536875000000
       275    1       12.756000000000      18.411700084457       1.944375000000
       276    1       14.350500000000      21.173455097126       1.944375000000
       277    2       14.350500000000      17.491115080234       2.592500000000
       278    2       12.756000000000      20.252870092903       2.592500000000
       279    2       12.756000000000      18.411700084457       0.000000000000
       280    2       14.350500000000      21.173455097126       0.000000000000
       281    1       17.539500000000      17.491115080234       4.536875000000
       282    1       15.945000000000      20.252870092903       4.536875000000
       283    1       15.945000000000      18.411700084457       1.944375000000
       284    1       17.539500000000      21.173455097126       1.944375000000
       285    2       17.539500000000      17.491115080234       2.592500000000
       286    2       15.945000000000      20.252870092903       2.592500000000
       287    2       15.945000000000      18.411700084457       0.000000000000
       288    2       17.539500000000      21.173455097126       0.000000000000
       289    1       20.728500000000      17.491115080234       4.536875000000
       290    1       19.134000000000      20.252870092903       4.536875000000
       291    1       19.134000000000      18.411700084457       1.944375000000
       292    1       20.728500000000      21.173455097126       1.944375000000
       293    2       20.728500000000      17.491115080234       2.592500000000
       294    2       19.134000000000      20.252870092903       2.592500000000
       295    2       19.134000000000      18.411700084457       0.000000000000
       296    2       20.728500000000      21.173455097126       0.000000000000
       297    1       23.917500000000      17.491115080234       4.536875000000
       298    1       22.323000000000      20.252870092903       4.536875000000
       299    1       22.323000000000      18.411700084457       1.944375000000
       300    1       23.917500000000      21.173455097126       1.944375000000
       301    2       23.917500000000      17.491115080234       2.592500000000
       302    2       22.323000000000      20.252870092903       2.592500000000
       303    2       22.323000000000      18.411700084457       0.000000000000
       304    2       23.917500000000      21.173455097126       0.000000000000
       305    1       27.106500000000      17.491115080234       4.536875000000
       306    1       25.512000000000      20.252870092903       4.536875000000
       307    1       25.512000000000      18.411700084457       1.944375000000
       308    1       27.106500000000      21.173455097126       1.944375000000
       309    2       27.106500000000      17.491115080234       2.592500000000
       310    2       25.512000000000      20.252870092903       2.592500000000
       311    2       25.512000000000      18.411700084457       0.000000000000
       312    2       27.106500000000      21.173455097126       0.000000000000
       313    1       30.295500000000      17.491115080234       4.536875000000
       314    1       28.701000000000      20.252870092903       4.536875000000
       315    1       28.701000000000      18.411700084457       1.944375000000
       316    1       30.295500000000      21.173455097126       1.944375000000
       317    2       30.295500000000      17.491115080234       2.592500000000
       318    2       28.701000000000      20.252870092903       2.592500000000
       319    2       28.701000000000      18.411700084457       0.000000000000
       320    2       30.295500000000      21.173455097126       0.000000000000
       321    1        1.594500000000      23.014625105571       4.536875000000
       322    1        0.000000000000      25.776380118240       4.536875000000
       323    1        0.000000000000      23.935210109794       1.944375000000
       324    1        1.594500000000      26.696965122463       1.944375000000
       325    2        1.594500000000      23.014625105571       2.592500000000
       326    2        0.000000000000      25.776380118240       2.592500000000
       327    2        0.000000000000      23.935210109794       0.000000000000
       328    2        1.594500000000      26.696965122463       0.000000000000
       329    1        4.783500000000      23.014625105571       4.536875000000
       330    1        3.189000000000      25.776380118240       4.536875000000
       331    1        3.189000000000      23.935210109794       1.944375000000
       332    1        4.783500000000      26.696965122463       1.944375000000
       333    2        4.783500000000      23.014625105571       2.592500000000
       334    2        3.189000000000      25.776380118240       2.592500000000
       335    2        3.189000000000      23.935210109794       0.000000000000
       336    2        4.783500000000      26.696965122463       0.000000000000
       337    1        7.972500000000      23.014625105571       4.536875000000
       338    1        6.378000000000      25.776380118240       4.536875000000
       339    1        6.378000000000      23.935210109794       1.944375000000
       340    1        7.972500000000      26.696965122463       1.944375000000
       341    2        7.972500000000      23.014625105571       2.592500000000
       342    2        6.378000000000      25.776380118240       2.592500000000
       343    2        6.378000000000      23.935210109794       0.000000000000
       344    2        7.972500000000      26.696965122463       0.000000000000
       345    1       11.161500000000      23.014625105571       4.536875000000
       346    1        9.567000000000      25.776380118240       4.536875000000
       347    1        9.567000000000      23.935210109794       1.944375000000
       348    1       11.161500000000      26.696965122463       1.944375000000
       349    2       11.161500000000      23.014625105571       2.592500000000
       350    2        9.567000000000      25.776380118240       2.592500000000
       351    2        9.567000000000      23.935210109794       0.000000000000
       352    2       11.161500000000      26.696965122463       0.000000000000
       353    1       14.350500000000      23.014625105571       4.536875000000
       354    1       12.756000000000      25.776380118240       4.536875000000
       355    1       12.756000000000      23.935210109794       1.944375000000
       356    1       14.350500000000      26.696965122463       1.944375000000
       357    2       14.350500000000      23.014625105571       2.592500000000
       358    2       12.756000000000      25.776380118240       2.592500000000
       359    2       12.756000000000      23.935210109794       0.000000000000
       360    2       14.350500000000      26.696965122463       0.000000000000
       361    1       17.539500000000      23.014625105571       4.536875000000
       362    1       15.945000000000      25.776380118240       4.536875000000
       363    1       15.945000000000      23.935210109794       1.944375000000
       364    1       17.539500000000      26.696965122463       1.944375000000
       365    2       17.539500000000      23.014625105571       2.592500000000
       366    2       15.945000000000      25.776380118240       2.592500000000
       367    2       15.945000000000      23.935210109794       0.000000000000
       368    2       17.539500000000      26.696965122463       0.000000000000
       369    1       20.728500000000      23.014625105571       4.536875000000
       370    1       19.134000000000      25.776380118240       4.536875000000
       371    1       19.134000000000      23.935210109794       1.944375000000
       372    1       20.728500000000      26.696965122463       1.944375000000
       373    2       20.728500000000      23.014625105571       2.592500000000
       374    2       19.134000000000      25.776380118240       2.592500000000
       375    2       19.134000000000      23.935210109794       0.000000000000
       376    2       20.728500000000      26.696965122463       0.000000000000
       377    1       23.917500000000      23.014625105571       4.536875000000
       378    1       22.323000000000      25.776380118240       4.536875000000
       379    1       22.323000000000      23.935210109794       1.944375000000
       380    1       23.917500000000      26.696965122463       1.944375000000
       381    2       23.917500000000      23.014625105571       2.592500000000
       382    2       22.323000000000      25.776380118240       2.592500000000
       383    2       22.323000000000      23.935210109794       0.000000000000
       384    2       23.917500000000      26.696965122463       0.000000000000
       385    1       27.106500000000      23.014625105571       4.536875000000
       386    1       25.512000000000      25.776380118240       4.536875000000
       387    1       25.512000000000      23.935210109794       1.944375000000
       388    1       27.106500000000      26.696965122463       1.944375000000
       389    2       27.106500000000      23.014625105571       2.592500000000
       390    2       25.512000000000      25.776380118240       2.592500000000
       391    2       25.512000000000      23.935210109794       0.000000000000
       392    2       27.106500000000      26.696965122463       0.000000000000
       393    1       30.295500000000      23.014625105571       4.536875000000
       394    1       28.701000000000      25.776380118240       4.536875000000
       395    1       28.701000000000      23.935210109794       1.944375000000
       396    1       30.295500000000      26.696965122463       1.944375000000
       397    2       30.295500000000      23.014625105571       2.592500000000
       398    2       28.701000000000      25.776380118240       2.592500000000
       399    2       28.701000000000      23.935210109794       0.000000000000
       400    2       30.295500000000      26.696965122463       0.000000000000
       401    1        1.594500000000       0.920585004223       9.721875000000
       402    1        0.000000000000       3.682340016891       9.721875000000
       403    1        0.000000000000       1.841170008446       7.129375000000
       404    1        1.594500000000       4.602925021114       7.129375000000
       405    2        1.594500000000       0.920585004223       7.777500000000
       406    2        0.000000000000       3.682340016891       7.777500000000
       407    2        0.000000000000       1.841170008446       5.185000000000
       408    2        1.594500000000       4.602925021114       5.185000000000
       409    1        4.783500000000       0.920585004223       9.721875000000
       410    1        3.189000000000       3.682340016891       9.721875000000
       411    1        3.189000000000       1.841170008446       7.129375000000
       412    1        4.783500000000       4.602925021114       7.129375000000
       413    2        4.783500000000       0.920585004223       7.777500000000
       414    2        3.189000000000       3.682340016891       7.777500000000
       415    2        3.189000000000       1.841170008446       5.185000000000
       416    2        4.783500000000       4.602925021114       5.185000000000
       417    1        7.972500000000       0.920585004223       9.721875000000
       418    1        6.378000000000       3.682340016891       9.721875000000
       419    1        6.378000000000       1.841170008446       7.129375000000
       420    1        7.972500000000       4.602925021114       7.129375000000
       421    2        7.972500000000       0.920585004223       7.777500000000
       422    2        6.378000000000       3.682340016891       7.777500000000
       423    2        6.378000000000       1.841170008446       5.185000000000
       424    2        7.972500000000       4.602925021114       5.185000000000
       425    1       11.161500000000       0.920585004223       9.721875000000
       426    1        9.567000000000       3.682340016891       9.721875000000
       427    1        9.567000000000       1.841170008446       7.129375000000
       428    1       11.161500000000       4.602925021114       7.129375000000
       429    2       11.161500000000       0.920585004223       7.777500000000
       430    2        9.567000000000       3.682340016891       7.777500000000
       431    2        9.567000000000       1.841170008446       5.185000000000
       432    2       11.161500000000       4.602925021114       5.185000000000
       433    1       14.350500000000       0.920585004223       9.721875000000
       434    1       12.756000000000       3.682340016891       9.721875000000
       435    1       12.756000000000       1.841170008446       7.129375000000
       436    1       14.350500000000       4.602925021114       7.129375000000
       437    2       14.350500000000       0.920585004223       7.777500000000
       438    2       12.756000000000       3.682340016891       7.777500000000
       439    2       12.756000000000       1.841170008446       5.185000000000
       440    2       14.350500000000       4.602925021114       5.185000000000
       441    1       17.539500000000       0.920585004223       9.721875000000
       442    1       15.945000000000       3.682340016891       9.721875000000
       443    1       15.945000000000       1.841170008446       7.129375000000
       444    1       17.539500000000       4.602925021114       7.129375000000
       445    2       17.539500000000       0.920585004223       7.777500000000
       446    2       15.945000000000       3.682340016891       7.777500000000
       447    2       15.945000000000       1.841170008446       5.185000000000
       448    2       17.539500000000       4.602925021114       5.185000000000
       449    1       20.728500000000       0.920585004223       9.721875000000
       450    1       19.134000000000       3.682340016891       9.721875000000
       451    1       19.134000000000       1.841170008446       7.129375000000
       452    1       20.728500000000       4.602925021114       7.129375000000
       453    2       20.728500000000       0.920585004223       7.777500000000
       454    2       19.134000000000       3.682340016891       7.777500000000
       455    2       19.134000000000       1.841170008446       5.185000000000
       456    2       20.728500000000       4.602925021114       5.185000000000
       457    1       23.917500000000       0.920585004223       9.721875000000
       458    1       22.323000000000       3.682340016891       9.721875000000
       459    1       22.323000000000       1.841170008446       7.129375000000
       460    1       23.917500000000       4.602925021114       7.129375000000
       461    2       23.917500000000       0.920585004223       7.777500000000
       462    2       22.323000000000       3.682340016891       7.777500000000
       463    2       22.323000000000       1.841170008446       5.185000000000
       464    2       23.917500000000       4.602925021114       5.185000000000
       465    1       27.106500000000       0.920585004223       9.721875000000
       466    1       25.512000000000       3.682340016891       9.721875000000
       467    1       25.512000000000       1.841170008446       7.129375000000
       468    1       27.106500000000       4.602925021114       7.129375000000
       469    2       27.106500000000       0.920585004223       7.777500000000
       470    2       25.512000000000       3.682340016891       7.777500000000
       471    2       25.512000000000       1.841170008446       5.185000000000
       472    2       27.106500000000       4.602925021114       5.185000000000
       473    1       30.295500000000       0.920585004223       9.721875000000
       474    1       28.701000000000       3.682340016891       9.721875000000
       475    1       28.701000000000       1.841170008446       7.129375000000
       476    1       30.295500000000       4.602925021114       7.129375000000
       477    2       30.295500000000       0.920585004223       7.777500000000
       478    2       28.701000000000       3.682340016891       7.777500000000
       479    2       28.701000000000       1.841170008446       5.185000000000
       480    2       30.295500000000       4.602925021114       5.185000000000
       481    1        1.594500000000       6.444095029560       9.721875000000
       482    1        0.000000000000       9.205850042229       9.721875000000
       483    1        0.000000000000       7.364680033783       7.129375000000
       484    1        1.594500000000      10.126435046451       7.129375000000
       485    2        1.594500000000       6.444095029560       7.777500000000
       486    2        0.000000000000       9.205850042229       7.777500000000
       487    2        0.000000000000       7.364680033783       5.185000000000
       488    2        1.594500000000      10.126435046451       5.185000000000
       489    1        4.783500000000       6.444095029560       9.721875000000
       490    1        3.189000000000       9.205850042229       9.721875000000
       491    1        3.189000000000       7.364680033783       7.129375000000
       492    1        4.783500000000      10.126435046451       7.129375000000
       493    2        4.783500000000       6.444095029560       7.777500000000
       494    2        3.189000000000       9.205850042229       7.777500000000
       495    2        3.189000000000       7.364680033783       5.185000000000
       496    2        4.783500000000      10.126435046451       5.185000000000
       497    1        7.972500000000       6.444095029560       9.721875000000
       498    1        6.378000000000       9.205850042229       9.721875000000
       499    1        6.378000000000       7.364680033783       7.129375000000
       500    1        7.972500000000      10.126435046451       7.129375000000
       501    2        7.972500000000       6.444095029560       7.777500000000
       502    2        6.378000000000       9.205850042229       7.777500000000
       503    2        6.378000000000       7.364680033783       5.185000000000
       504    2        7.972500000000      10.126435046451       5.185000000000
       505    1       11.161500000000       6.444095029560       9.721875000000
       506    1        9.567000000000       9.205850042229       9.721875000000
       507    1        9.567000000000       7.364680033783       7.129375000000
       508    1       11.161500000000      10.126435046451       7.129375000000
       509    2       11.161500000000       6.444095029560       7.777500000000
       510    2        9.567000000000       9.205850042229       7.777500000000
       511    2        9.567000000000       7.364680033783       5.185000000000
       512    2       11.161500000000      10.126435046451       5.185000000000
       513    1       14.350500000000       6.444095029560       9.721875000000
       514    1       12.756000000000       9.205850042229       9.721875000000
       515    1       12.756000000000       7.364680033783       7.129375000000
       516    1       14.350500000000      10.126435046451       7.129375000000
       517    2       14.350500000000       6.444095029560       7.777500000000
       518    2       12.756000000000       9.205850042229       7.777500000000
       519    2       12.756000000000       7.364680033783       5.185000000000
       520    2       14.350500000000      10.126435046451       5.185000000000
       521    1       17.539500000000       6.444095029560       9.721875000000
       522    1       15.945000000000       9.205850042229       9.721875000000
       523    1       15.945000000000       7.364680033783       7.129375000000
       524    1       17.539500000000      10.126435046451       7.129375000000
       525    2       17.539500000000       6.444095029560       7.777500000000
       526    2       15.945000000000       9.205850042229       7.777500000000
       527    2       15.945000000000       7.364680033783       5.185000000000
       528    2       17.539500000000      10.126435046451       5.185000000000
       529    1       20.728500000000       6.444095029560       9.721875000000
       530    1       19.134000000000       9.205850042229       9.721875000000
       531    1       19.134000000000       7.364680033783       7.129375000000
       532    1       20.728500000000      10.126435046451       7.129375000000
       533    2       20.728500000000       6.444095029560       7.777500000000
       534    2       19.134000000000       9.205850042229       7.777500000000
       535    2       19.134000000000       7.364680033783       5.185000000000
       536    2       20.728500000000      10.126435046451       5.185000000000
       537    1       23.917500000000       6.444095029560       9.721875000000
       538    1       22.323000000000       9.205850042229       9.721875000000
       539    1       22.323000000000       7.364680033783       7.129375000000
       540    1       23.917500000000      10.126435046451       7.129375000000
       541    2       23.917500000000       6.444095029560       7.777500000000
       542    2       22.323000000000       9.205850042229       7.777500000000
       543    2       22.323000000000       7.364680033783       5.185000000000
       544    2       23.917500000000      10.126435046451       5.185000000000
       545    1       27.106500000000       6.444095029560       9.721875000000
       546    1       25.512000000000       9.205850042229       9.721875000000
       547    1       25.512000000000       7.364680033783       7.129375000000
       548    1       27.106500000000      10.126435046451       7.129375000000
       549    2       27.106500000000       6.444095029560       7.777500000000
       550    2       25.512000000000       9.205850042229       7.777500000000
       551    2       25.512000000000       7.364680033783       5.185000000000
       552    2       27.106500000000      10.126435046451       5.185000000000
       553    1       30.295500000000       6.444095029560       9.721875000000
       554    1       28.701000000000       9.205850042229       9.721875000000
       555    1       28.701000000000       7.364680033783       7.129375000000
       556    1       30.295500000000      10.126435046451       7.129375000000
       557    2       30.295500000000       6.444095029560       7.777500000000
       558    2       28.701000000000       9.205850042229       7.777500000000
       559    2       28.701000000000       7.364680033783       5.185000000000
       560    2       30.295500000000      10.126435046451       5.185000000000
       561    1        1.594500000000      11.967605054897       9.721875000000
       562    1        0.000000000000      14.729360067566       9.721875000000
       563    1        0.000000000000      12.888190059120       7.129375000000
       564    1        1.594500000000      15.649945071789       7.129375000000
       565    2        1.594500000000      11.967605054897       7.777500000000
       566    2        0.000000000000      14.729360067566       7.777500000000
       567    2        0.000000000000      12.888190059120       5.185000000000
       568    2        1.594500000000      15.649945071789       5.185000000000
       569    1        4.783500000000      11.967605054897       9.721875000000
       570    1        3.189000000000      14.729360067566       9.721875000000
       571    1        3.189000000000      12.888190059120       7.129375000000
       572    1        4.783500000000      15.649945071789       7.129375000000
       573    2        4.783500000000      11.967605054897       7.777500000000
       574    2        3.189000000000      14.729360067566       7.777500000000
       575    2        3.189000000000      12.888190059120       5.185000000000
       576    2        4.783500000000      15.649945071789       5.185000000000
       577    1        7.972500000000      11.967605054897       9.721875000000
       578    1        6.378000000000      14.729360067566       9.721875000000
       579    1        6.378000000000      12.888190059120       7.129375000000
       580    1        7.972500000000      15.649945071789       7.129375000000
       581    2        7.972500000000      11.967605054897       7.777500000000
       582    2        6.378000000000      14.729360067566       7.777500000000
       583    2        6.378000000000      12.888190059120       5.185000000000
       584    2        7.972500000000      15.649945071789       5.185000000000
       585    1       11.161500000000      11.967605054897       9.721875000000
       586    1        9.567000000000      14.729360067566       9.721875000000
       587    1        9.567000000000      12.888190059120       7.129375000000
       588    1       11.161500000000      15.649945071789       7.129375000000
       589    2       11.161500000000      11.967605054897       7.777500000000
       590    2        9.567000000000      14.729360067566       7.777500000000
       591    2        9.567000000000      12.888190059120       5.185000000000
       592    2       11.161500000000      15.649945071789       5.185000000000
       593    1       14.350500000000      11.967605054897       9.721875000000
       594    1       12.756000000000      14.729360067566       9.721875000000
       595    1       12.756000000000      12.888190059120       7.129375000000
       596    1       14.350500000000      15.649945071789       7.129375000000
       597    2       14.350500000000      11.967605054897       7.777500000000
       598    2       12.756000000000      14.729360067566       7.777500000000
       599    2       12.756000000000      12.888190059120       5.185000000000
       600    2       14.350500000000      15.649945071789       5.185000000000
       601    1       17.539500000000      11.967605054897       9.721875000000
       602    1       15.945000000000      14.729360067566       9.721875000000
       603    1       15.945000000000      12.888190059120       7.129375000000
       604    1       17.539500000000      15.649945071789       7.129375000000
       605    2       17.539500000000      11.967605054897       7.777500000000
       606    2       15.945000000000      14.729360067566       7.777500000000
       607    2       15.945000000000      12.888190059120       5.185000000000
       608    2       17.539500000000      15.649945071789       5.185000000000
       609    1       20.728500000000      11.967605054897       9.721875000000
       610    1       19.134000000000      14.729360067566       9.721875000000
       611    1       19.134000000000      12.888190059120       7.129375000000
       612    1       20.728500000000      15.649945071789       7.129375000000
       613    2       20.728500000000      11.967605054897       7.777500000000
       614    2       19.134000000000      14.729360067566       7.777500000000
       615    2       19.134000000000      12.888190059120       5.185000000000
       616    2       20.728500000000      15.649945071789       5.185000000000
       617    1       23.917500000000      11.967605054897       9.721875000000
       618    1       22.323000000000      14.729360067566       9.721875000000
       619    1       22.323000000000      12.888190059120       7.129375000000
       620    1       23.917500000000      15.649945071789       7.129375000000
       621    2       23.917500000000      11.967605054897       7.777500000000
       622    2       22.323000000000      14.729360067566       7.777500000000
       623    2       22.323000000000      12.888190059120       5.185000000000
       624    2       23.917500000000      15.649945071789       5.185000000000
       625    1       27.106500000000      11.967605054897       9.721875000000
       626    1       25.512000000000      14.729360067566       9.721875000000
       627    1       25.512000000000      12.888190059120       7.129375000000
       628    1       27.106500000000      15.649945071789       7.129375000000
       629    2       27.106500000000      11.967605054897       7.777500000000
       630    2       25.512000000000      14.729360067566       7.777500000000
       631    2       25.512000000000      12.888190059120       5.185000000000
       632    2       27.106500000000      15.649945071789       5.185000000000
       633    1       30.295500000000      11.967605054897       9.721875000000
       634    1       28.701000000000      14.729360067566       9.721875000000
       635    1       28.701000000000      12.888190059120       7.129375000000
       636    1       30.295500000000      15.649945071789       7.129375000000
       637    2       30.295500000000      11.967605054897       7.777500000000
       638    2       28.701000000000      14.729360067566       7.777500000000
       639    2       28.701000000000      12.888190059120       5.185000000000
       640    2       30.295500000000      15.649945071789       5.185000000000
       641    1        1.594500000000      17.491115080234       9.721875000000
       642    1        0.000000000000      20.252870092903       9.721875000000
       643    1        0.000000000000      18.411700084457       7.129375000000
       644    1        1.594500000000      21.173455097126       7.129375000000
       645    2        1.594500000000      17.491115080234       7.777500000000
       646    2        0.000000000000      20.252870092903       7.777500000000
       647    2        0.000000000000      18.411700084457       5.185000000000
       648    2        1.594500000000      21.173455097126       5.185000000000
       649    1        4.783500000000      17.491115080234       9.721875000000
       650    1        3.189000000000      20.252870092903       9.721875000000
       651    1        3.189000000000      18.411700084457       7.129375000000
       652    1        4.783500000000      21.173455097126       7.129375000000
       653    2        4.783500000000      17.491115080234       7.777500000000
       654    2        3.189000000000      20.252870092903       7.777500000000
       655    2        3.189000000000      18.411700084457       5.185000000000
       656    2        4.783500000000      21.173455097126       5.185000000000
       657    1        7.972500000000      17.491115080234       9.721875000000
       658    1        6.378000000000      20.252870092903       9.721875000000
       659    1        6.378000000000      18.411700084457       7.129375000000
       660    1        7.972500000000      21.173455097126       7.129375000000
       661    2        7.972500000000      17.491115080234       7.777500000000
       662    2        6.378000000000      20.252870092903       7.777500000000
       663    2        6.378000000000      18.411700084457       5.185000000000
       664    2        7.972500000000      21.173455097126       5.185000000000
       665    1       11.161500000000      17.491115080234       9.721875000000
       666    1        9.567000000000      20.252870092903       9.721875000000
       667    1        9.567000000000      18.411700084457       7.129375000000
       668    1       11.161500000000      21.173455097126       7.129375000000
       669    2       11.161500000000      17.491115080234       7.777500000000
       670    2        9.567000000000      20.252870092903       7.777500000000
       671    2        9.567000000000      18.411700084457       5.185000000000
       672    2       11.161500000000      21.173455097126       5.185000000000
       673    1       14.350500000000      17.491115080234       9.721875000000
       674    1       12.756000000000      20.252870092903       9.721875000000
       675    1       12.756000000000      18.411700084457       7.129375000000
       676    1       14.350500000000      21.173455097126       7.129375000000
       677    2       14.350500000000      17.491115080234       7.777500000000
       678    2       12.756000000000      20.252870092903       7.777500000000
       679    2       12.756000000000      18.411700084457       5.185000000000
       680    2       14.350500000000      21.173455097126       5.185000000000
       681    1       17.539500000000      17.491115080234       9.721875000000
       682    1       15.945000000000      20.252870092903       9.721875000000
       683    1       15.945000000000      18.411700084457       7.129375000000
       684    1       17.539500000000      21.173455097126       7.129375000000
       685    2       17.539500000000      17.491115080234       7.777500000000
       686    2       15.945000000000      20.252870092903       7.777500000000
       687    2       15.945000000000      18.411700084457       5.185000000000
       688    2       17.539500000000      21.173455097126       5.185000000000
       689    1       20.728500000000      17.491115080234       9.721875000000
       690    1       19.134000000000      20.252870092903       9.721875000000
       691    1       19.134000000000      18.411700084457       7.129375000000
       692    1       20.728500000000      21.173455097126       7.129375000000
       693    2       20.728500000000      17.491115080234       7.777500000000
       694    2       19.134000000000      20.252870092903       7.777500000000
       695    2       19.134000000000      18.411700084457       5.185000000000
       696    2       20.728500000000      21.173455097126       5.185000000000
       697    1       23.917500000000      17.491115080234       9.721875000000
       698    1       22.323000000000      20.252870092903       9.721875000000
       699    1       22.323000000000      18.411700084457       7.129375000000
       700    1       23.917500000000      21.173455097126       7.129375000000
       701    2       23.917500000000      17.491115080234       7.777500000000
       702    2       22.323000000000      20.252870092903       7.777500000000
       703    2       22.323000000000      18.411700084457       5.185000000000
       704    2       23.917500000000      21.173455097126       5.185000000000
       705    1       27.106500000000      17.491115080234       9.721875000000
       706    1       25.512000000000      20.252870092903       9.721875000000
       707    1       25.512000000000      18.411700084457       7.129375000000
       708    1       27.106500000000      21.173455097126       7.129375000000
       709    2       27.106500000000      17.491115080234       7.777500000000
       710    2       25.512000000000      20.252870092903       7.777500000000
       711    2       25.512000000000      18.411700084457       5.185000000000
       712    2       27.106500000000      21.173455097126       5.185000000000
       713    1       30.295500000000      17.491115080234       9.721875000000
       714    1       28.701000000000      20.252870092903       9.721875000000
       715    1       28.701000000000      18.411700084457       7.129375000000
       716    1       30.295500000000      21.173455097126       7.129375000000
       717    2       30.295500000000      17.491115080234       7.777500000000
       718    2       28.701000000000      20.252870092903       7.777500000000
       719    2       28.701000000000      18.411700084457       5.185000000000
       720    2       30.295500000000      21.173455097126       5.185000000000
       721    1        1.594500000000      23.014625105571       9.721875000000
       722    1        0.000000000000      25.776380118240       9.721875000000
       723    1        0.000000000000      23.935210109794       7.129375000000
       724    1        1.594500000000      26.696965122463       7.129375000000
       725    2        1.594500000000      23.014625105571       7.777500000000
       726    2        0.000000000000      25.776380118240       7.777500000000
       727    2        0.000000000000      23.935210109794       5.185000000000
       728    2        1.594500000000      26.696965122463       5.185000000000
       729    1        4.783500000000      23.014625105571       9.721875000000
       730    1        3.189000000000      25.776380118240       9.721875000000
       731    1        3.189000000000      23.935210109794       7.129375000000
       732    1        4.783500000000      26.696965122463       7.129375000000
       733    2        4.783500000000      23.014625105571       7.777500000000
       734    2        3.189000000000      25.776380118240       7.777500000000
       735    2        3.189000000000      23.935210109794       5.185000000000
       736    2        4.783500000000      26.696965122463       5.185000000000
       737    1        7.972500000000      23.014625105571       9.721875000000
       738    1        6.378000000000      25.776380118240       9.721875000000
       739    1        6.378000000000      23.935210109794       7.129375000000
       740    1        7.972500000000      26.696965122463       7.129375000000
       741    2        7.972500000000      23.014625105571       7.777500000000
       742    2        6.378000000000      25.776380118240       7.777500000000
       743    2        6.378000000000      23.935210109794       5.185000000000
       744    2        7.972500000000      26.696965122463       5.185000000000
       745    1       11.161500000000      23.014625105571       9.721875000000
       746    1        9.567000000000      25.776380118240       9.721875000000
       747    1        9.567000000000      23.935210109794       7.129375000000
       748    1       11.161500000000      26.696965122463       7.129375000000
       749    2       11.161500000000      23.014625105571       7.777500000000
       750    2        9.567000000000      25.776380118240       7.777500000000
       751    2        9.567000000000      23.935210109794       5.185000000000
       752    2       11.161500000000      26.696965122463       5.185000000000
       753    1       14.350500000000      23.014625105571       9.721875000000
       754    1       12.756000000000      25.776380118240       9.721875000000
       755    1       12.756000000000      23.935210109794       7.129375000000
       756    1       14.350500000000      26.696965122463       7.129375000000
       757    2       14.350500000000      23.014625105571       7.777500000000
       758    2       12.756000000000      25.776380118240       7.777500000000
       759    2       12.756000000000      23.935210109794       5.185000000000
       760    2       14.350500000000      26.696965122463       5.185000000000
       761    1       17.539500000000      23.014625105571       9.721875000000
       762    1       15.945000000000      25.776380118240       9.721875000000
       763    1       15.945000000000      23.935210109794       7.129375000000
       764    1       17.539500000000      26.696965122463       7.129375000000
       765    2       17.539500000000      23.014625105571       7.777500000000
       766    2       15.945000000000      25.776380118240       7.777500000000
       767    2       15.945000000000      23.935210109794       5.185000000000
       768    2       17.539500000000      26.696965122463       5.185000000000
       769    1       20.728500000000      23.014625105571       9.721875000000
       770    1       19.134000000000      25.776380118240       9.721875000000
       771    1       19.134000000000      23.935210109794       7.129375000000
       772    1       20.728500000000      26.696965122463       7.129375000000
       773    2       20.728500000000      23.014625105571       7.777500000000
       774    2       19.134000000000      25.776380118240       7.777500000000
       775    2       19.134000000000      23.935210109794       5.185000000000
       776    2       20.728500000000      26.696965122463       5.185000000000
       777    1       23.917500000000      23.014625105571       9.721875000000
       778    1       22.323000000000      25.776380118240       9.721875000000
       779    1       22.323000000000      23.935210109794       7.129375000000
       780    1       23.917500000000      26.696965122463       7.129375000000
       781    2       23.917500000000      23.014625105571       7.777500000000
       782    2       22.323000000000      25.776380118240       7.777500000000
       783    2       22.323000000000      23.935210109794       5.185000000000
       784    2       23.917500000000      26.696965122463       5.185000000000
       785    1       27.106500000000      23.014625105571       9.721875000000
       786    1       25.512000000000      25.776380118240       9.721875000000
       787    1       25.512000000000      23.935210109794       7.129375000000
       788    1       27.106500000000      26.696965122463       7.129375000000
       789    2       27.106500000000      23.014625105571       7.777500000000
       790    2       25.512000000000      25.776380118240       7.777500000000
       791    2       25.512000000000      23.935210109794       5.185000000000
       792    2       27.106500000000      26.696965122463       5.185000000000
       793    1       30.295500000000      23.014625105571       9.721875000000
       794    1       28.701000000000      25.776380118240       9.721875000000
       795    1       28.701000000000      23.935210109794       7.129375000000
       796    1       30.295500000000      26.696965122463       7.129375000000
       797    2       30.295500000000      23.014625105571       7.777500000000
       798    2       28.701000000000      25.776380118240       7.777500000000
       799    2       28.701000000000      23.935210109794       5.185000000000
       800    2       30.295500000000      26.696965122463       5.185000000000
       801    1        1.594500000000       0.920585004223      14.906875000000
       802    1        0.000000000000       3.682340016891      14.906875000000
       803    1        0.000000000000       1.841170008446      12.314375000000
       804    1        1.594500000000       4.602925021114      12.314375000000
       805    2        1.594500000000       0.920585004223      12.962500000000
       806    2        0.000000000000       3.682340016891      12.962500000000
       807    2        0.000000000000       1.841170008446      10.370000000000
       808    2        1.594500000000       4.602925021114      10.370000000000
       809    1        4.783500000000       0.920585004223      14.906875000000
       810    1        3.189000000000       3.682340016891      14.906875000000
       811    1        3.189000000000       1.841170008446      12.314375000000
       812    1        4.783500000000       4.602925021114      12.314375000000
       813    2        4.783500000000       0.920585004223      12.962500000000
       814    2        3.189000000000       3.682340016891      12.962500000000
       815    2        3.189000000000       1.841170008446      10.370000000000
       816    2        4.783500000000       4.602925021114      10.370000000000
       817    1        7.972500000000       0.920585004223      14.906875000000
       818    1        6.378000000000       3.682340016891      14.906875000000
       819    1        6.378000000000       1.841170008446      12.314375000000
       820    1        7.972500000000       4.602925021114      12.314375000000
       821    2        7.972500000000       0.920585004223      12.962500000000
       822    2        6.378000000000       3.682340016891      12.962500000000
       823    2        6.378000000000       1.841170008446      10.370000000000
       824    2        7.972500000000       4.602925021114      10.370000000000
       825    1       11.161500000000       0.920585004223      14.906875000000
       826    1        9.567000000000       3.682340016891      14.906875000000
       827    1        9.567000000000       1.841170008446      12.314375000000
       828    1       11.161500000000       4.602925021114      12.314375000000
       829    2       11.161500000000       0.920585004223      12.962500000000
       830    2        9.567000000000       3.682340016891      12.962500000000
       831    2        9.567000000000       1.841170008446      10.370000000000
       832    2       11.161500000000       4.602925021114      10.370000000000
       833    1       14.350500000000       0.920585004223      14.906875000000
       834    1       12.756000000000       3.682340016891      14.906875000000
       835    1       12.756000000000       1.841170008446      12.314375000000
       836    1       14.350500000000       4.602925021114      12.314375000000
       837    2       14.350500000000       0.920585004223      12.962500000000
       838    2       12.756000000000       3.682340016891      12.962500000000
       839    2       12.756000000000       1.841170008446      10.370000000000
       840    2       14.350500000000       4.602925021114      10.370000000000
       841    1       17.539500000000       0.920585004223      14.906875000000
       842    1       15.945000000000       3.682340016891      14.906875000000
       843    1       15.945000000000       1.841170008446      12.314375000000
       844    1       17.539500000000       4.602925021114      12.314375000000
       845    2       17.539500000000       0.920585004223      12.962500000000
       846    2       15.945000000000       3.682340016891      12.962500000000
       847    2       15.945000000000       1.841170008446      10.370000000000
       848    2       17.539500000000       4.602925021114      10.370000000000
       849    1       20.728500000000       0.920585004223      14.906875000000
       850    1       19.134000000000       3.682340016891      14.906875000000
       851    1       19.134000000000       1.841170008446      12.314375000000
       852    1       20.728500000000       4.602925021114      12.314375000000
       853    2       20.728500000000       0.920585004223      12.962500000000
       854    2       19.134000000000       3.682340016891      12.962500000000
       855    2       19.134000000000       1.841170008446      10.370000000000
       856    2       20.728500000000       4.602925021114      10.370000000000
       857    1       23.917500000000       0.920585004223      14.906875000000
       858    1       22.323000000000       3.682340016891      14.906875000000
       859    1       22.323000000000       1.841170008446      12.314375000000
       860    1       23.917500000000       4.602925021114      12.314375000000
       861    2       23.917500000000       0.920585004223      12.962500000000
       862    2       22.323000000000       3.682340016891      12.962500000000
       863    2       22.323000000000       1.841170008446      10.370000000000
       864    2       23.917500000000       4.602925021114      10.370000000000
       865    1       27.106500000000       0.920585004223      14.906875000000
       866    1       25.512000000000       3.682340016891      14.906875000000
       867    1       25.512000000000       1.841170008446      12.314375000000
       868    1       27.106500000000       4.602925021114      12.314375000000
       869    2       27.106500000000       0.920585004223      12.962500000000
       870    2       25.512000000000       3.682340016891      12.962500000000
       871    2       25.512000000000       1.841170008446      10.370000000000
       872    2       27.106500000000       4.602925021114      10.370000000000
       873    1       30.295500000000       0.920585004223      14.906875000000
       874    1       28.701000000000       3.682340016891      14.906875000000
       875    1       28.701000000000       1.841170008446      12.314375000000
       876    1       30.295500000000       4.602925021114      12.314375000000
       877    2       30.295500000000       0.920585004223      12.962500000000
       878    2       28.701000000000       3.682340016891      12.962500000000
       879    2       28.701000000000       1.841170008446      10.370000000000
       880    2       30.295500000000       4.602925021114      10.370000000000
       881    1        1.594500000000       6.444095029560      14.906875000000
       882    1        0.000000000000       9.205850042229      14.906875000000
       883    1        0.000000000000       7.364680033783      12.314375000000
       884    1        1.594500000000      10.126435046451      12.314375000000
       885    2        1.594500000000       6.444095029560      12.962500000000
       886    2        0.000000000000       9.205850042229      12.962500000000
       887    2        0.000000000000       7.364680033783      10.370000000000
       888    2        1.594500000000      10.126435046451      10.370000000000
       889    1        4.783500000000       6.444095029560      14.906875000000
       890    1        3.189000000000       9.205850042229      14.906875000000
       891    1        3.189000000000       7.364680033783      12.314375000000
       892    1        4.783500000000      10.126435046451      12.314375000000
       893    2        4.783500000000       6.444095029560      12.962500000000
       894    2        3.189000000000       9.205850042229      12.962500000000
       895    2        3.189000000000       7.364680033783      10.370000000000
       896    2        4.783500000000      10.126435046451      10.370000000000
       897    1        7.972500000000       6.444095029560      14.906875000000
       898    1        6.378000000000       9.205850042229      14.906875000000
       899    1        6.378000000000       7.364680033783      12.314375000000
       900    1        7.972500000000      10.126435046451      12.314375000000
       901    2        7.972500000000       6.444095029560      12.962500000000
       902    2        6.378000000000       9.205850042229      12.962500000000
       903    2        6.378000000000       7.364680033783      10.370000000000
       904    2        7.972500000000      10.126435046451      10.370000000000
       905    1       11.161500000000       6.444095029560      14.906875000000
       906    1        9.567000000000       9.205850042229      14.906875000000
       907    1        9.567000000000       7.364680033783      12.314375000000
       908    1       11.161500000000      10.126435046451      12.314375000000
       909    2       11.161500000000       6.444095029560      12.962500000000
       910    2        9.567000000000       9.205850042229      12.962500000000
       911    2        9.567000000000       7.364680033783      10.370000000000
       912    2       11.161500000000      10.126435046451      10.370000000000
       913    1       14.350500000000       6.444095029560      14.906875000000
       914    1       12.756000000000       9.205850042229      14.906875000000
       915    1       12.756000000000       7.364680033783      12.314375000000
       916    1       14.350500000000      10.126435046451      12.314375000000
       917    2       14.350500000000       6.444095029560      12.962500000000
       918    2       12.756000000000       9.205850042229      12.962500000000
       919    2       12.756000000000       7.364680033783      10.370000000000
       920    2       14.350500000000      10.126435046451      10.370000000000
       921    1       17.539500000000       6.444095029560      14.906875000000
       922    1       15.945000000000       9.205850042229      14.906875000000
       923    1       15.945000000000       7.364680033783      12.314375000000
       924    1       17.539500000000      10.126435046451      12.314375000000
       925    2       17.539500000000       6.444095029560      12.962500000000
       926    2       15.945000000000       9.205850042229      12.962500000000
       927    2       15.945000000000       7.364680033783      10.370000000000
       928    2       17.539500000000      10.126435046451      10.370000000000
       929    1       20.728500000000       6.444095029560      14.906875000000
       930    1       19.134000000000       9.205850042229      14.906875000000
       931    1       19.134000000000       7.364680033783      12.314375000000
       932    1       20.728500000000      10.126435046451      12.314375000000
       933    2       20.728500000000       6.444095029560      12.962500000000
       934    2       19.134000000000       9.205850042229      12.962500000000
       935    2       19.134000000000       7.364680033783      10.370000000000
       936    2       20.728500000000      10.126435046451      10.370000000000
       937    1       23.917500000000       6.444095029560      14.906875000000
       938    1       22.323000000000       9.205850042229      14.906875000000
       939    1       22.323000000000       7.364680033783      12.314375000000
       940    1       23.917500000000      10.126435046451      12.314375000000
       941    2       23.917500000000       6.444095029560      12.962500000000
       942    2       22.323000000000       9.205850042229      12.962500000000
       943    2       22.323000000000       7.364680033783      10.370000000000
       944    2       23.917500000000      10.126435046451      10.370000000000
       945    1       27.106500000000       6.444095029560      14.906875000000
       946    1       25.512000000000       9.205850042229      14.906875000000
       947    1       25.512000000000       7.364680033783      12.314375000000
       948    1       27.106500000000      10.126435046451      12.314375000000
       949    2       27.106500000000       6.444095029560      12.962500000000
       950    2       25.512000000000       9.205850042229      12.962500000000
       951    2       25.512000000000       7.364680033783      10.370000000000
       952    2       27.106500000000      10.126435046451      10.370000000000
       953    1       30.295500000000       6.444095029560      14.906875000000
       954    1       28.701000000000       9.205850042229      14.906875000000
       955    1       28.701000000000       7.364680033783      12.314375000000
       956    1       30.295500000000      10.126435046451      12.314375000000
       957    2       30.295500000000       6.444095029560      12.962500000000
       958    2       28.701000000000       9.205850042229      12.962500000000
       959    2       28.701000000000       7.364680033783      10.370000000000
       960    2       30.295500000000      10.126435046451      10.370000000000
       961    1        1.594500000000      11.967605054897      14.906875000000
       962    1        0.000000000000      14.729360067566      14.906875000000
       963    1        0.000000000000      12.888190059120      12.314375000000
       964    1        1.594500000000      15.649945071789      12.314375000000
       965    2        1.594500000000      11.967605054897      12.962500000000
       966    2        0.000000000000      14.729360067566      12.962500000000
       967    2        0.000000000000      12.888190059120      10.370000000000
       968    2        1.594500000000      15.649945071789      10.370000000000
       969    1        4.783500000000      11.967605054897      14.906875000000
       970    1        3.189000000000      14.729360067566      14.906875000000
       971    1        3.189000000000      12.888190059120      12.314375000000
       972    1        4.783500000000      15.649945071789      12.314375000000
       973    2        4.783500000000      11.967605054897      12.962500000000
       974    2        3.189000000000      14.729360067566      12.962500000000
       975    2        3.189000000000      12.888190059120      10.370000000000
       976    2        4.783500000000      15.649945071789      10.370000000000
       977    1        7.972500000000      11.967605054897      14.906875000000
       978    1        6.378000000000      14.729360067566      14.906875000000
       979    1        6.378000000000      12.888190059120      12.314375000000
       980    1        7.972500000000      15.649945071789      12.314375000000
       981    2        7.972500000000      11.967605054897      12.962500000000
       982    2        6.378000000000      14.729360067566      12.962500000000
       983    2        6.378000000000      12.888190059120      10.370000000000
       984    2        7.972500000000      15.649945071789      10.370000000000
       985    1       11.161500000000      11.967605054897      14.906875000000
       986    1        9.567000000000      14.729360067566      14.906875000000
       987    1        9.567000000000      12.888190059120      12.314375000000
       988    1       11.161500000000      15.649945071789      12.314375000000
       989    2       11.161500000000      11.967605054897      12.962500000000
       990    2        9.567000000000      14.729360067566      12.962500000000
       991    2        9.567000000000      12.888190059120      10.370000000000
       992    2       11.161500000000      15.649945071789      10.370000000000
       993    1       14.350500000000      11.967605054897      14.906875000000
       994    1       12.756000000000      14.729360067566      14.906875000000
       995    1       12.756000000000      12.888190059120      12.314375000000
       996    1       14.350500000000      15.649945071789      12.314375000000
       997    2       14.350500000000      11.967605054897      12.962500000000
       998    2       12.756000000000      14.729360067566      12.962500000000
       999    2       12.756000000000      12.888190059120      10.370000000000
      1000    2       14.350500000000      15.649945071789      10.370000000000
      1001    1       17.539500000000      11.967605054897      14.906875000000
      1002    1       15.945000000000      14.729360067566      14.906875000000
      1003    1       15.945000000000      12.888190059120      12.314375000000
      1004    1       17.539500000000      15.649945071789      12.314375000000
      1005    2       17.539500000000      11.967605054897      12.962500000000
      1006    2       15.945000000000      14.729360067566      12.962500000000
      1007    2       15.945000000000      12.888190059120      10.370000000000
      1008    2       17.539500000000      15.649945071789      10.370000000000
      1009    1       20.728500000000      11.967605054897      14.906875000000
      1010    1       19.134000000000      14.729360067566      14.906875000000
      1011    1       19.134000000000      12.888190059120      12.314375000000
      1012    1       20.728500000000      15.649945071789      12.314375000000
      1013    2       20.728500000000      11.967605054897      12.962500000000
      1014    2       19.134000000000      14.729360067566      12.962500000000
      1015    2       19.134000000000      12.888190059120      10.370000000000
      1016    2       20.728500000000      15.649945071789      10.370000000000
      1017    1       23.917500000000      11.967605054897      14.906875000000
      1018    1       22.323000000000      14.729360067566      14.906875000000
      1019    1       22.323000000000      12.888190059120      12.314375000000
      1020    1       23.917500000000      15.649945071789      12.314375000000
      1021    2       23.917500000000      11.967605054897      12.962500000000
      1022    2       22.323000000000      14.729360067566      12.962500000000
      1023    2       22.323000000000      12.888190059120      10.370000000000
      1024    2       23.917500000000      15.649945071789      10.370000000000
      1025    1       27.106500000000      11.967605054897      14.906875000000
      1026    1       25.512000000000      14.729360067566      14.906875000000
      1027    1       25.512000000000      12.888190059120      12.314375000000
      1028    1       27.106500000000      15.649945071789      12.314375000000
      1029    2       27.106500000000      11.967605054897      12.962500000000
      1030    2       25.512000000000      14.729360067566      12.962500000000
      1031    2       25.512000000000      12.888190059120      10.370000000000
      1032    2       27.106500000000      15.649945071789      10.370000000000
      1033    1       30.295500000000      11.967605054897      14.906875000000
      1034    1       28.701000000000      14.729360067566      14.906875000000
      1035    1       28.701000000000      12.888190059120      12.314375000000
      1036    1       30.295500000000      15.649945071789      12.314375000000
      1037    2       30.295500000000      11.967605054897      12.962500000000
      1038    2       28.701000000000      14.729360067566      12.962500000000
      1039    2       28.701000000000      12.888190059120      10.370000000000
      1040    2       30.295500000000      15.649945071789      10.370000000000
      1041    1        1.594500000000      17.491115080234      14.906875000000
      1042    1        0.000000000000      20.252870092903      14.906875000000
      1043    1        0.000000000000      18.411700084457      12.314375000000
      1044    1        1.594500000000      21.173455097126      12.314375000000
      1045    2        1.594500000000      17.491115080234      12.962500000000
      1046    2        0.000000000000      20.252870092903      12.962500000000
      1047    2        0.000000000000      18.411700084457      10.370000000000
      1048    2        1.594500000000      21.173455097126      10.370000000000
      1049    1        4.783500000000      17.491115080234      14.906875000000
      1050    1        3.189000000000      20.252870092903      14.906875000000
      1051    1        3.189000000000      18.411700084457      12.314375000000
      1052    1        4.783500000000      21.173455097126      12.314375000000
      1053    2        4.783500000000      17.491115080234      12.962500000000
      1054    2        3.189000000000      20.252870092903      12.962500000000
      1055    2        3.189000000000      18.411700084457      10.370000000000
      1056    2        4.783500000000      21.173455097126      10.370000000000
      1057    1        7.972500000000      17.491115080234      14.906875000000
      1058    1        6.378000000000      20.252870092903      14.906875000000
      1059    1        6.378000000000      18.411700084457      12.314375000000
      1060    1        7.972500000000      21.173455097126      12.314375000000
      1061    2        7.972500000000      17.491115080234      12.962500000000
      1062    2        6.378000000000      20.252870092903      12.962500000000
      1063    2        6.378000000000      18.411700084457      10.370000000000
      1064    2        7.972500000000      21.173455097126      10.370000000000
      1065    1       11.161500000000      17.491115080234      14.906875000000
      1066    1        9.567000000000      20.252870092903      14.906875000000
      1067    1        9.567000000000      18.411700084457      12.314375000000
      1068    1       11.161500000000      21.173455097126      12.314375000000
      1069    2       11.161500000000      17.491115080234      12.962500000000
      1070    2        9.567000000000      20.252870092903      12.962500000000
      1071    2        9.567000000000      18.411700084457      10.370000000000
      1072    2       11.161500000000      21.173455097126      10.370000000000
      1073    1       14.350500000000      17.491115080234      14.906875000000
      1074    1       12.756000000000      20.252870092903      14.906875000000
      1075    1       12.756000000000      18.411700084457      12.314375000000
      1076    1       14.350500000000      21.173455097126      12.314375000000
      1077    2       14.350500000000      17.491115080234      12.962500000000
      1078    2       12.756000000000      20.252870092903      12.962500000000
      1079    2       12.756000000000      18.411700084457      10.370000000000
      1080    2       14.350500000000      21.173455097126      10.370000000000
      1081    1       17.539500000000      17.491115080234      14.906875000000
      1082    1       15.945000000000      20.252870092903      14.906875000000
      1083    1       15.945000000000      18.411700084457      12.314375000000
      1084    1       17.539500000000      21.173455097126      12.314375000000
      1085    2       17.539500000000      17.491115080234      12.962500000000
      1086    2       15.945000000000      20.252870092903      12.962500000000
      1087    2       15.945000000000      18.411700084457      10.370000000000
      1088    2       17.539500000000      21.173455097126      10.370000000000
      1089    1       20.728500000000      17.491115080234      14.906875000000
      1090    1       19.134000000000      20.252870092903      14.906875000000
      1091    1       19.134000000000      18.411700084457      12.314375000000
      1092    1       20.728500000000      21.173455097126      12.314375000000
      1093    2       20.728500000000      17.491115080234      12.962500000000
      1094    2       19.134000000000      20.252870092903      12.962500000000
      1095    2       19.134000000000      18.411700084457      10.370000000000
      1096    2       20.728500000000      21.173455097126      10.370000000000
      1097    1       23.917500000000      17.491115080234      14.906875000000
      1098    1       22.323000000000      20.252870092903      14.906875000000
      1099    1       22.323000000000      18.411700084457      12.314375000000
      1100    1       23.917500000000      21.173455097126      12.314375000000
      1101    2       23.917500000000      17.491115080234      12.962500000000
      1102    2       22.323000000000      20.252870092903      12.962500000000
      1103    2       22.323000000000      18.411700084457      10.370000000000
      1104    2       23.917500000000      21.173455097126      10.370000000000
      1105    1       27.106500000000      17.491115080234      14.906875000000
      1106    1       25.512000000000      20.252870092903      14.906875000000
      1107    1       25.512000000000      18.411700084457      12.314375000000
      1108    1       27.106500000000      21.173455097126      12.314375000000
      1109    2       27.106500000000      17.491115080234      12.962500000000
      1110    2       25.512000000000      20.252870092903      12.962500000000
      1111    2       25.512000000000      18.411700084457      10.370000000000
      1112    2       27.106500000000      21.173455097126      10.370000000000
      1113    1       30.295500000000      17.491115080234      14.906875000000
      1114    1       28.701000000000      20.252870092903      14.906875000000
      1115    1       28.701000000000      18.411700084457      12.314375000000
      1116    1       30.295500000000      21.173455097126      12.314375000000
      1117    2       30.295500000000      17.491115080234      12.962500000000
      1118    2       28.701000000000      20.252870092903      12.962500000000
      1119    2       28.701000000000      18.411700084457      10.370000000000
      1120    2       30.295500000000      21.173455097126      10.370000000000
      1121    1        1.594500000000      23.014625105571      14.906875000000
      1122    1        0.000000000000      25.776380118240      14.906875000000
      1123    1        0.000000000000      23.935210109794      12.314375000000
      1124    1        1.594500000000      26.696965122463      12.314375000000
      1125    2        1.594500000000      23.014625105571      12.962500000000
      1126    2        0.000000000000      25.776380118240      12.962500000000
      1127    2        0.000000000000      23.935210109794      10.370000000000
      1128    2        1.594500000000      26.696965122463      10.370000000000
      1129    1        4.783500000000      23.014625105571      14.906875000000
      1130    1        3.189000000000      25.776380118240      14.906875000000
      1131    1        3.189000000000      23.935210109794      12.314375000000
      1132    1        4.783500000000      26.696965122463      12.314375000000
      1133    2        4.783500000000      23.014625105571      12.962500000000
      1134    2        3.189000000000      25.776380118240      12.962500000000
      1135    2        3.189000000000      23.935210109794      10.370000000000
      1136    2        4.783500000000      26.696965122463      10.370000000000
      1137    1        7.972500000000      23.014625105571      14.906875000000
      1138    1        6.378000000000      25.776380118240      14.906875000000
      1139    1        6.378000000000      23.935210109794      12.314375000000
      1140    1        7.972500000000      26.696965122463      12.314375000000
      1141    2        7.972500000000      23.014625105571      12.962500000000
      1142    2        6.378000000000      25.776380118240      12.962500000000
      1143    2        6.378000000000      23.935210109794      10.370000000000
      1144    2        7.972500000000      26.696965122463      10.370000000000
      1145    1       11.161500000000      23.014625105571      14.906875000000
      1146    1        9.567000000000      25.776380118240      14.906875000000
      1147    1        9.567000000000      23.935210109794      12.314375000000
      1148    1       11.161500000000      26.696965122463      12.314375000000
      1149    2       11.161500000000      23.014625105571      12.962500000000
      1150    2        9.567000000000      25.776380118240      12.962500000000
      1151    2        9.567000000000      23.935210109794      10.370000000000
      1152    2       11.161500000000      26.696965122463      10.370000000000
      1153    1       14.350500000000      23.014625105571      14.906875000000
      1154    1       12.756000000000      25.776380118240      14.906875000000
      1155    1       12.756000000000      23.935210109794      12.314375000000
      1156    1       14.350500000000      26.696965122463      12.314375000000
      1157    2       14.350500000000      23.014625105571      12.962500000000
      1158    2       12.756000000000      25.776380118240      12.962500000000
      1159    2       12.756000000000      23.935210109794      10.370000000000
      1160    2       14.350500000000      26.696965122463      10.370000000000
      1161    1       17.539500000000      23.014625105571      14.906875000000
      1162    1       15.945000000000      25.776380118240      14.906875000000
      1163    1       15.945000000000      23.935210109794      12.314375000000
      1164    1       17.539500000000      26.696965122463      12.314375000000
      1165    2       17.539500000000      23.014625105571      12.962500000000
      1166    2       15.945000000000      25.776380118240      12.962500000000
      1167    2       15.945000000000      23.935210109794      10.370000000000
      1168    2       17.539500000000      26.696965122463      10.370000000000
      1169    1       20.728500000000      23.014625105571      14.906875000000
      1170    1       19.134000000000      25.776380118240      14.906875000000
      1171    1       19.134000000000      23.935210109794      12.314375000000
      1172    1       20.728500000000      26.696965122463      12.314375000000
      1173    2       20.728500000000      23.014625105571      12.962500000000
      1174    2       19.134000000000      25.776380118240      12.962500000000
      1175    2       19.134000000000      23.935210109794      10.370000000000
      1176    2       20.728500000000      26.696965122463      10.370000000000
      1177    1       23.917500000000      23.014625105571      14.906875000000
      1178    1       22.323000000000      25.776380118240      14.906875000000
      1179    1       22.323000000000      23.935210109794      12.314375000000
      1180    1       23.917500000000      26.696965122463      12.314375000000
      1181    2       23.917500000000      23.014625105571      12.962500000000
      1182    2       22.323000000000      25.776380118240      12.962500000000
      1183    2       22.323000000000      23.935210109794      10.370000000000
      1184    2       23.917500000000      26.696965122463      10.370000000000
      1185    1       27.106500000000      23.014625105571      14.906875000000
      1186    1       25.512000000000      25.776380118240      14.906875000000
      1187    1       25.512000000000      23.935210109794      12.314375000000
      1188    1       27.106500000000      26.696965122463      12.314375000000
      1189    2       27.106500000000      23.014625105571      12.962500000000
      1190    2       25.512000000000      25.776380118240      12.962500000000
      1191    2       25.512000000000      23.935210109794      10.370000000000
      1192    2       27.106500000000      26.696965122463      10.370000000000
      1193    1       30.295500000000      23.014625105571      14.906875000000
      1194    1       28.701000000000      25.776380118240      14.906875000000
      1195    1       28.701000000000      23.935210109794      12.314375000000
      1196    1       30.295500000000      26.696965122463      12.314375000000
      1197    2       30.295500000000      23.014625105571      12.962500000000
      1198    2       28.701000000000      25.776380118240      12.962500000000
      1199    2       28.701000000000      23.935210109794      10.370000000000
      1200    2       30.295500000000      26.696965122463      10.370000000000
      1201    1        1.594500000000       0.920585004223      20.091875000000
      1202    1        0.000000000000       3.682340016891      20.091875000000
      1203    1        0.000000000000       1.841170008446      17.499375000000
      1204    1        1.594500000000       4.602925021114      17.499375000000
      1205    2        1.594500000000       0.920585004223      18.147500000000
      1206    2        0.000000000000       3.682340016891      18.147500000000
      1207    2        0.000000000000       1.841170008446      15.555000000000
      1208    2        1.594500000000       4.602925021114      15.555000000000
      1209    1        4.783500000000       0.920585004223      20.091875000000
      1210    1        3.189000000000       3.682340016891      20.091875000000
      1211    1        3.189000000000       1.841170008446      17.499375000000
      1212    1        4.783500000000       4.602925021114      17.499375000000
      1213    2        4.783500000000       0.920585004223      18.147500000000
      1214    2        3.189000000000       3.682340016891      18.147500000000
      1215    2        3.189000000000       1.841170008446      15.555000000000
      1216    2        4.783500000000       4.602925021114      15.555000000000
      1217    1        7.972500000000       0.920585004223      20.091875000000
      1218    1        6.378000000000       3.682340016891      20.091875000000
      1219    1        6.378000000000       1.841170008446      17.499375000000
      1220    1        7.972500000000       4.602925021114      17.499375000000
      1221    2        7.972500000000       0.920585004223      18.147500000000
      1222    2        6.378000000000       3.682340016891      18.147500000000
      1223    2        6.378000000000       1.841170008446      15.555000000000
      1224    2        7.972500000000       4.602925021114      15.555000000000
      1225    1       11.161500000000       0.920585004223      20.091875000000
      1226    1        9.567000000000       3.682340016891      20.091875000000
      1227    1        9.567000000000       1.841170008446      17.499375000000
      1228    1       11.161500000000       4.602925021114      17.499375000000
      1229    2       11.161500000000       0.920585004223      18.147500000000
      1230    2        9.567000000000       3.682340016891      18.147500000000
      1231    2        9.567000000000       1.841170008446      15.555000000000
      1232    2       11.161500000000       4.602925021114      15.555000000000
      1233    1       14.350500000000       0.920585004223      20.091875000000
      1234    1       12.756000000000       3.682340016891      20.091875000000
      1235    1       12.756000000000       1.841170008446      17.499375000000
      1236    1       14.350500000000       4.602925021114      17.499375000000
      1237    2       14.350500000000       0.920585004223      18.147500000000
      1238    2       12.756000000000       3.682340016891      18.147500000000
      1239    2       12.756000000000       1.841170008446      15.555000000000
      1240    2       14.350500000000       4.602925021114      15.555000000000
      1241    1       17.539500000000       0.920585004223      20.091875000000
      1242    1       15.945000000000       3.682340016891      20.091875000000
      1243    1       15.945000000000       1.841170008446      17.499375000000
      1244    1       17.539500000000       4.602925021114      17.499375000000
      1245    2       17.539500000000       0.920585004223      18.147500000000
      1246    2       15.945000000000       3.682340016891      18.147500000000
      1247    2       15.945000000000       1.841170008446      15.555000000000
      1248    2       17.539500000000       4.602925021114      15.555000000000
      1249    1       20.728500000000       0.920585004223      20.091875000000
      1250    1       19.134000000000       3.682340016891      20.091875000000
      1251    1       19.134000000000       1.841170008446      17.499375000000
      1252    1       20.728500000000       4.602925021114      17.499375000000
      1253    2       20.728500000000       0.920585004223      18.147500000000
      1254    2       19.134000000000       3.682340016891      18.147500000000
      1255    2       19.134000000000       1.841170008446      15.555000000000
      1256    2       20.728500000000       4.602925021114      15.555000000000
      1257    1       23.917500000000       0.920585004223      20.091875000000
      1258    1       22.323000000000       3.682340016891      20.091875000000
      1259    1       22.323000000000       1.841170008446      17.499375000000
      1260    1       23.917500000000       4.602925021114      17.499375000000
      1261    2       23.917500000000       0.920585004223      18.147500000000
      1262    2       22.323000000000       3.682340016891      18.147500000000
      1263    2       22.323000000000       1.841170008446      15.555000000000
      1264    2       23.917500000000       4.602925021114      15.555000000000
      1265    1       27.106500000000       0.920585004223      20.091875000000
      1266    1       25.512000000000       3.682340016891      20.091875000000
      1267    1       25.512000000000       1.841170008446      17.499375000000
      1268    1       27.106500000000       4.602925021114      17.499375000000
      1269    2       27.106500000000       0.920585004223      18.147500000000
      1270    2       25.512000000000       3.682340016891      18.147500000000
      1271    2       25.512000000000       1.841170008446      15.555000000000
      1272    2       27.106500000000       4.602925021114      15.555000000000
      1273    1       30.295500000000       0.920585004223      20.091875000000
      1274    1       28.701000000000       3.682340016891      20.091875000000
      1275    1       28.701000000000       1.841170008446      17.499375000000
      1276    1       30.295500000000       4.602925021114      17.499375000000
      1277    2       30.295500000000       0.920585004223      18.147500000000
      1278    2       28.701000000000       3.682340016891      18.147500000000
      1279    2       28.701000000000       1.841170008446      15.555000000000
      1280    2       30.295500000000       4.602925021114      15.555000000000
      1281    1        1.594500000000       6.444095029560      20.091875000000
      1282    1        0.000000000000       9.205850042229      20.091875000000
      1283    1        0.000000000000       7.364680033783      17.499375000000
      1284    1        1.594500000000      10.126435046451      17.499375000000
      1285    2        1.594500000000       6.444095029560      18.147500000000
      1286    2        0.000000000000       9.205850042229      18.147500000000
      1287    2        0.000000000000       7.364680033783      15.555000000000
      1288    2        1.594500000000      10.126435046451      15.555000000000
      1289    1        4.783500000000       6.444095029560      20.091875000000
      1290    1        3.189000000000       9.205850042229      20.091875000000
      1291    1        3.189000000000       7.364680033783      17.499375000000
      1292    1        4.783500000000      10.126435046451      17.499375000000
      1293    2        4.783500000000       6.444095029560      18.147500000000
      1294    2        3.189000000000       9.205850042229      18.147500000000
      1295    2        3.189000000000       7.364680033783      15.555000000000
      1296    2        4.783500000000      10.126435046451      15.555000000000
      1297    1        7.972500000000       6.444095029560      20.091875000000
      1298    1        6.378000000000       9.205850042229      20.091875000000
      1299    1        6.378000000000       7.364680033783      17.499375000000
      1300    1        7.972500000000      10.126435046451      17.499375000000
      1301    2        7.972500000000       6.444095029560      18.147500000000
      1302    2        6.378000000000       9.205850042229      18.147500000000
      1303    2        6.378000000000       7.364680033783      15.555000000000
      1304    2        7.972500000000      10.126435046451      15.555000000000
      1305    1       11.161500000000       6.444095029560      20.091875000000
      1306    1        9.567000000000       9.205850042229      20.091875000000
      1307    1        9.567000000000       7.364680033783      17.499375000000
      1308    1       11.161500000000      10.126435046451      17.499375000000
      1309    2       11.161500000000       6.444095029560      18.147500000000
      1310    2        9.567000000000       9.205850042229      18.147500000000
      1311    2        9.567000000000       7.364680033783      15.555000000000
      1312    2       11.161500000000      10.126435046451      15.555000000000
      1313    1       14.350500000000       6.444095029560      20.091875000000
      1314    1       12.756000000000       9.205850042229      20.091875000000
      1315    1       12.756000000000       7.364680033783      17.499375000000
      1316    1       14.350500000000      10.126435046451      17.499375000000
      1317    2       14.350500000000       6.444095029560      18.147500000000
      1318    2       12.756000000000       9.205850042229      18.147500000000
      1319    2       12.756000000000       7.364680033783      15.555000000000
      1320    2       14.350500000000      10.126435046451      15.555000000000
      1321    1       17.539500000000       6.444095029560      20.091875000000
      1322    1       15.945000000000       9.205850042229      20.091875000000
      1323    1       15.945000000000       7.364680033783      17.499375000000
      1324    1       17.539500000000      10.126435046451      17.499375000000
      1325    2       17.539500000000       6.444095029560      18.147500000000
      1326    2       15.945000000000       9.205850042229      18.147500000000
      1327    2       15.945000000000       7.364680033783      15.555000000000
      1328    2       17.539500000000      10.126435046451      15.555000000000
      1329    1       20.728500000000       6.444095029560      20.091875000000
      1330    1       19.134000000000       9.205850042229      20.091875000000
      1331    1       19.134000000000       7.364680033783      17.499375000000
      1332    1       20.728500000000      10.126435046451      17.499375000000
      1333    2       20.728500000000       6.444095029560      18.147500000000
      1334    2       19.134000000000       9.205850042229      18.147500000000
      1335    2       19.134000000000       7.364680033783      15.555000000000
      1336    2       20.728500000000      10.126435046451      15.555000000000
      1337    1       23.917500000000       6.444095029560      20.091875000000
      1338    1       22.323000000000       9.205850042229      20.091875000000
      1339    1       22.323000000000       7.364680033783      17.499375000000
      1340    1       23.917500000000      10.126435046451      17.499375000000
      1341    2       23.917500000000       6.444095029560      18.147500000000
      1342    2       22.323000000000       9.205850042229      18.147500000000
      1343    2       22.323000000000       7.364680033783      15.555000000000
      1344    2       23.917500000000      10.126435046451      15.555000000000
      1345    1       27.106500000000       6.444095029560      20.091875000000
      1346    1       25.512000000000       9.205850042229      20.091875000000
      1347    1       25.512000000000       7.364680033783      17.499375000000
      1348    1       27.106500000000      10.126435046451      17.499375000000
      1349    2       27.106500000000       6.444095029560      18.147500000000
      1350    2       25.512000000000       9.205850042229      18.147500000000
      1351    2       25.512000000000       7.364680033783      15.555000000000
      1352    2       27.106500000000      10.126435046451      15.555000000000
      1353    1       30.295500000000       6.444095029560      20.091875000000
      1354    1       28.701000000000       9.205850042229      20.091875000000
      1355    1       28.701000000000       7.364680033783      17.499375000000
      1356    1       30.295500000000      10.126435046451      17.499375000000
      1357    2       30.295500000000       6.444095029560      18.147500000000
      1358    2       28.701000000000       9.205850042229      18.147500000000
      1359    2       28.701000000000       7.364680033783      15.555000000000
      1360    2       30.295500000000      10.126435046451      15.555000000000
      1361    1        1.594500000000      11.967605054897      20.091875000000
      1362    1        0.000000000000      14.729360067566      20.091875000000
      1363    1        0.000000000000      12.888190059120      17.499375000000
      1364    1        1.594500000000      15.649945071789      17.499375000000
      1365    2        1.594500000000      11.967605054897      18.147500000000
      1366    2        0.000000000000      14.729360067566      18.147500000000
      1367    2        0.000000000000      12.888190059120      15.555000000000
      1368    2        1.594500000000      15.649945071789      15.555000000000
      1369    1        4.783500000000      11.967605054897      20.091875000000
      1370    1        3.189000000000      14.729360067566      20.091875000000
      1371    1        3.189000000000      12.888190059120      17.499375000000
      1372    1        4.783500000000      15.649945071789      17.499375000000
      1373    2        4.783500000000      11.967605054897      18.147500000000
      1374    2        3.189000000000      14.729360067566      18.147500000000
      1375    2        3.189000000000      12.888190059120      15.555000000000
      1376    2        4.783500000000      15.649945071789      15.555000000000
      1377    1        7.972500000000      11.967605054897      20.091875000000
      1378    1        6.378000000000      14.729360067566      20.091875000000
      1379    1        6.378000000000      12.888190059120      17.499375000000
      1380    1        7.972500000000      15.649945071789      17.499375000000
      1381    2        7.972500000000      11.967605054897      18.147500000000
      1382    2        6.378000000000      14.729360067566      18.147500000000
      1383    2        6.378000000000      12.888190059120      15.555000000000
      1384    2        7.972500000000      15.649945071789      15.555000000000
      1385    1       11.161500000000      11.967605054897      20.091875000000
      1386    1        9.567000000000      14.729360067566      20.091875000000
      1387    1        9.567000000000      12.888190059120      17.499375000000
      1388    1       11.161500000000      15.649945071789      17.499375000000
      1389    2       11.161500000000      11.967605054897      18.147500000000
      1390    2        9.567000000000      14.729360067566      18.147500000000
      1391    2        9.567000000000      12.888190059120      15.555000000000
      1392    2       11.161500000000      15.649945071789      15.555000000000
      1393    1       14.350500000000      11.967605054897      20.091875000000
      1394    1       12.756000000000      14.729360067566      20.091875000000
      1395    1       12.756000000000      12.888190059120      17.499375000000
      1396    1       14.350500000000      15.649945071789      17.499375000000
      1397    2       14.350500000000      11.967605054897      18.147500000000
      1398    2       12.756000000000      14.729360067566      18.147500000000
      1399    2       12.756000000000      12.888190059120      15.555000000000
      1400    2       14.350500000000      15.649945071789      15.555000000000
      1401    1       17.539500000000      11.967605054897      20.091875000000
      1402    1       15.945000000000      14.729360067566      20.091875000000
      1403    1       15.945000000000      12.888190059120      17.499375000000
      1404    1       17.539500000000      15.649945071789      17.499375000000
      1405    2       17.539500000000      11.967605054897      18.147500000000
      1406    2       15.945000000000      14.729360067566      18.147500000000
      1407    2       15.945000000000      12.888190059120      15.555000000000
      1408    2       17.539500000000      15.649945071789      15.555000000000
      1409    1       20.728500000000      11.967605054897      20.091875000000
      1410    1       19.134000000000      14.729360067566      20.091875000000
      1411    1       19.134000000000      12.888190059120      17.499375000000
      1412    1       20.728500000000      15.649945071789      17.499375000000
      1413    2       20.728500000000      11.967605054897      18.147500000000
      1414    2       19.134000000000      14.729360067566      18.147500000000
      1415    2       19.134000000000      12.888190059120      15.555000000000
      1416    2       20.728500000000      15.649945071789      15.555000000000
      1417    1       23.917500000000      11.967605054897      20.091875000000
      1418    1       22.323000000000      14.729360067566      20.091875000000
      1419    1       22.323000000000      12.888190059120      17.499375000000
      1420    1       23.917500000000      15.649945071789      17.499375000000
      1421    2       23.917500000000      11.967605054897      18.147500000000
      1422    2       22.323000000000      14.729360067566      18.147500000000
      1423    2       22.323000000000      12.888190059120      15.555000000000
      1424    2       23.917500000000      15.649945071789      15.555000000000
      1425    1       27.106500000000      11.967605054897      20.091875000000
      1426    1       25.512000000000      14.729360067566      20.091875000000
      1427    1       25.512000000000      12.888190059120      17.499375000000
      1428    1       27.106500000000      15.649945071789      17.499375000000
      1429    2       27.106500000000      11.967605054897      18.147500000000
      1430    2       25.512000000000      14.729360067566      18.147500000000
      1431    2       25.512000000000      12.888190059120      15.555000000000
      1432    2       27.106500000000      15.649945071789      15.555000000000
      1433    1       30.295500000000      11.967605054897      20.091875000000
      1434    1       28.701000000000      14.729360067566      20.091875000000
      1435    1       28.701000000000      12.888190059120      17.499375000000
      1436    1       30.295500000000      15.649945071789      17.499375000000
      1437    2       30.295500000000      11.967605054897      18.147500000000
      1438    2       28.701000000000      14.729360067566      18.147500000000
      1439    2       28.701000000000      12.888190059120      15.555000000000
      1440    2       30.295500000000      15.649945071789      15.555000000000
      1441    1        1.594500000000      17.491115080234      20.091875000000
      1442    1        0.000000000000      20.252870092903      20.091875000000
      1443    1        0.000000000000      18.411700084457      17.499375000000
      1444    1        1.594500000000      21.173455097126      17.499375000000
      1445    2        1.594500000000      17.491115080234      18.147500000000
      1446    2        0.000000000000      20.252870092903      18.147500000000
      1447    2        0.000000000000      18.411700084457      15.555000000000
      1448    2        1.594500000000      21.173455097126      15.555000000000
      1449    1        4.783500000000      17.491115080234      20.091875000000
      1450    1        3.189000000000      20.252870092903      20.091875000000
      1451    1        3.189000000000      18.411700084457      17.499375000000
      1452    1        4.783500000000      21.173455097126      17.499375000000
      1453    2        4.783500000000      17.491115080234      18.147500000000
      1454    2        3.189000000000      20.252870092903      18.147500000000
      1455    2        3.189000000000      18.411700084457      15.555000000000
      1456    2        4.783500000000      21.173455097126      15.555000000000
      1457    1        7.972500000000      17.491115080234      20.091875000000
      1458    1        6.378000000000      20.252870092903      20.091875000000
      1459    1        6.378000000000      18.411700084457      17.499375000000
      1460    1        7.972500000000      21.173455097126      17.499375000000
      1461    2        7.972500000000      17.491115080234      18.147500000000
      1462    2        6.378000000000      20.252870092903      18.147500000000
      1463    2        6.378000000000      18.411700084457      15.555000000000
      1464    2        7.972500000000      21.173455097126      15.555000000000
      1465    1       11.161500000000      17.491115080234      20.091875000000
      1466    1        9.567000000000      20.252870092903      20.091875000000
      1467    1        9.567000000000      18.411700084457      17.499375000000
      1468    1       11.161500000000      21.173455097126      17.499375000000
      1469    2       11.161500000000      17.491115080234      18.147500000000
      1470    2        9.567000000000      20.252870092903      18.147500000000
      1471    2        9.567000000000      18.411700084457      15.555000000000
      1472    2       11.161500000000      21.173455097126      15.555000000000
      1473    1       14.350500000000      17.491115080234      20.091875000000
      1474    1       12.756000000000      20.252870092903      20.091875000000
      1475    1       12.756000000000      18.411700084457      17.499375000000
      1476    1       14.350500000000      21.173455097126      17.499375000000
      1477    2       14.350500000000      17.491115080234      18.147500000000
      1478    2       12.756000000000      20.252870092903      18.147500000000
      1479    2       12.756000000000      18.411700084457      15.555000000000
      1480    2       14.350500000000      21.173455097126      15.555000000000
      1481    1       17.539500000000      17.491115080234      20.091875000000
      1482    1       15.945000000000      20.252870092903      20.091875000000
      1483    1       15.945000000000      18.411700084457      17.499375000000
      1484    1       17.539500000000      21.173455097126      17.499375000000
      1485    2       17.539500000000      17.491115080234      18.147500000000
      1486    2       15.945000000000      20.252870092903      18.147500000000
      1487    2       15.945000000000      18.411700084457      15.555000000000
      1488    2       17.539500000000      21.173455097126      15.555000000000
      1489    1       20.728500000000      17.491115080234      20.091875000000
      1490    1       19.134000000000      20.252870092903      20.091875000000
      1491    1       19.134000000000      18.411700084457      17.499375000000
      1492    1       20.728500000000      21.173455097126      17.499375000000
      1493    2       20.728500000000      17.491115080234      18.147500000000
      1494    2       19.134000000000      20.252870092903      18.147500000000
      1495    2       19.134000000000      18.411700084457      15.555000000000
      1496    2       20.728500000000      21.173455097126      15.555000000000
      1497    1       23.917500000000      17.491115080234      20.091875000000
      1498    1       22.323000000000      20.252870092903      20.091875000000
      1499    1       22.323000000000      18.411700084457      17.499375000000
      1500    1       23.917500000000      21.173455097126      17.499375000000
      1501    2       23.917500000000      17.491115080234      18.147500000000
      1502    2       22.323000000000      20.252870092903      18.147500000000
      1503    2       22.323000000000      18.411700084457      15.555000000000
      1504    2       23.917500000000      21.173455097126      15.555000000000
      1505    1       27.106500000000      17.491115080234      20.091875000000
      1506    1       25.512000000000      20.252870092903      20.091875000000
      1507    1       25.512000000000      18.411700084457      17.499375000000
      1508    1       27.106500000000      21.173455097126      17.499375000000
      1509    2       27.106500000000      17.491115080234      18.147500000000
      1510    2       25.512000000000      20.252870092903      18.147500000000
      1511    2       25.512000000000      18.411700084457      15.555000000000
      1512    2       27.106500000000      21.173455097126      15.555000000000
      1513    1       30.295500000000      17.491115080234      20.091875000000
      1514    1       28.701000000000      20.252870092903      20.091875000000
      1515    1       28.701000000000      18.411700084457      17.499375000000
      1516    1       30.295500000000      21.173455097126      17.499375000000
      1517    2       30.295500000000      17.491115080234      18.147500000000
      1518    2       28.701000000000      20.252870092903      18.147500000000
      1519    2       28.701000000000      18.411700084457      15.555000000000
      1520    2       30.295500000000      21.173455097126      15.555000000000
      1521    1        1.594500000000      23.014625105571      20.091875000000
      1522    1        0.000000000000      25.776380118240      20.091875000000
      1523    1        0.000000000000      23.935210109794      17.499375000000
      1524    1        1.594500000000      26.696965122463      17.499375000000
      1525    2        1.594500000000      23.014625105571      18.147500000000
      1526    2        0.000000000000      25.776380118240      18.147500000000
      1527    2        0.000000000000      23.935210109794      15.555000000000
      1528    2        1.594500000000      26.696965122463      15.555000000000
      1529    1        4.783500000000      23.014625105571      20.091875000000
      1530    1        3.189000000000      25.776380118240      20.091875000000
      1531    1        3.189000000000      23.935210109794      17.499375000000
      1532    1        4.783500000000      26.696965122463      17.499375000000
      1533    2        4.783500000000      23.014625105571      18.147500000000
      1534    2        3.189000000000      25.776380118240      18.147500000000
      1535    2        3.189000000000      23.935210109794      15.555000000000
      1536    2        4.783500000000      26.696965122463      15.555000000000
      1537    1        7.972500000000      23.014625105571      20.091875000000
      1538    1        6.378000000000      25.776380118240      20.091875000000
      1539    1        6.378000000000      23.935210109794      17.499375000000
      1540    1        7.972500000000      26.696965122463      17.499375000000
      1541    2        7.972500000000      23.014625105571      18.147500000000
      1542    2        6.378000000000      25.776380118240      18.147500000000
      1543    2        6.378000000000      23.935210109794      15.555000000000
      1544    2        7.972500000000      26.696965122463      15.555000000000
      1545    1       11.161500000000      23.014625105571      20.091875000000
      1546    1        9.567000000000      25.776380118240      20.091875000000
      1547    1        9.567000000000      23.935210109794      17.499375000000
      1548    1       11.161500000000      26.696965122463      17.499375000000
      1549    2       11.161500000000      23.014625105571      18.147500000000
      1550    2        9.567000000000      25.776380118240      18.147500000000
      1551    2        9.567000000000      23.935210109794      15.555000000000
      1552    2       11.161500000000      26.696965122463      15.555000000000
      1553    1       14.350500000000      23.014625105571      20.091875000000
      1554    1       12.756000000000      25.776380118240      20.091875000000
      1555    1       12.756000000000      23.935210109794      17.499375000000
      1556    1       14.350500000000      26.696965122463      17.499375000000
      1557    2       14.350500000000      23.014625105571      18.147500000000
      1558    2       12.756000000000      25.776380118240      18.147500000000
      1559    2       12.756000000000      23.935210109794      15.555000000000
      1560    2       14.350500000000      26.696965122463      15.555000000000
      1561    1       17.539500000000      23.014625105571      20.091875000000
      1562    1       15.945000000000      25.776380118240      20.091875000000
      1563    1       15.945000000000      23.935210109794      17.499375000000
      1564    1       17.539500000000      26.696965122463      17.499375000000
      1565    2       17.539500000000      23.014625105571      18.147500000000
      1566    2       15.945000000000      25.776380118240      18.147500000000
      1567    2       15.945000000000      23.935210109794      15.555000000000
      1568    2       17.539500000000      26.696965122463      15.555000000000
      1569    1       20.728500000000      23.014625105571      20.091875000000
      1570    1       19.134000000000      25.776380118240      20.091875000000
      1571    1       19.134000000000      23.935210109794      17.499375000000
      1572    1       20.728500000000      26.696965122463      17.499375000000
      1573    2       20.728500000000      23.014625105571      18.147500000000
      1574    2       19.134000000000      25.776380118240      18.147500000000
      1575    2       19.134000000000      23.935210109794      15.555000000000
      1576    2       20.728500000000      26.696965122463      15.555000000000
      1577    1       23.917500000000      23.014625105571      20.091875000000
      1578    1       22.323000000000      25.776380118240      20.091875000000
      1579    1       22.323000000000      23.935210109794      17.499375000000
      1580    1       23.917500000000      26.696965122463      17.499375000000
      1581    2       23.917500000000      23.014625105571      18.147500000000
      1582    2       22.323000000000      25.776380118240      18.147500000000
      1583    2       22.323000000000      23.935210109794      15.555000000000
      1584    2       23.917500000000      26.696965122463      15.555000000000
      1585    1       27.106500000000      23.014625105571      20.091875000000
      1586    1       25.512000000000      25.776380118240      20.091875000000
      1587    1       25.512000000000      23.935210109794      17.499375000000
      1588    1       27.106500000000      26.696965122463      17.499375000000
      1589    2       27.106500000000      23.014625105571      18.147500000000
      1590    2       25.512000000000      25.776380118240      18.147500000000
      1591    2       25.512000000000      23.935210109794      15.555000000000
      1592    2       27.106500000000      26.696965122463      15.555000000000
      1593    1       30.295500000000      23.014625105571      20.091875000000
      1594    1       28.701000000000      25.776380118240      20.091875000000
      1595    1       28.701000000000      23.935210109794      17.499375000000
      1596    1       30.295500000000      26.696965122463      17.499375000000
      1597    2       30.295500000000      23.014625105571      18.147500000000
      1598    2       28.701000000000      25.776380118240      18.147500000000
      1599    2       28.701000000000      23.935210109794      15.555000000000
      1600    2       30.295500000000      26.696965122463      15.555000000000
      1601    1        1.594500000000       0.920585004223      25.276875000000
      1602    1        0.000000000000       3.682340016891      25.276875000000
      1603    1        0.000000000000       1.841170008446      22.684375000000
      1604    1        1.594500000000       4.602925021114      22.684375000000
      1605    2        1.594500000000       0.920585004223      23.332500000000
      1606    2        0.000000000000       3.682340016891      23.332500000000
      1607    2        0.000000000000       1.841170008446      20.740000000000
      1608    2        1.594500000000       4.602925021114      20.740000000000
      1609    1        4.783500000000       0.920585004223      25.276875000000
      1610    1        3.189000000000       3.682340016891      25.276875000000
      1611    1        3.189000000000       1.841170008446      22.684375000000
      1612    1        4.783500000000       4.602925021114      22.684375000000
      1613    2        4.783500000000       0.920585004223      23.332500000000
      1614    2        3.189000000000       3.682340016891      23.332500000000
      1615    2        3.189000000000       1.841170008446      20.740000000000
      1616    2        4.783500000000       4.602925021114      20.740000000000
      1617    1        7.972500000000       0.920585004223      25.276875000000
      1618    1        6.378000000000       3.682340016891      25.276875000000
      1619    1        6.378000000000       1.841170008446      22.684375000000
      1620    1        7.972500000000       4.602925021114      22.684375000000
      1621    2        7.972500000000       0.920585004223      23.332500000000
      1622    2        6.378000000000       3.682340016891      23.332500000000
      1623    2        6.378000000000       1.841170008446      20.740000000000
      1624    2        7.972500000000       4.602925021114      20.740000000000
      1625    1       11.161500000000       0.920585004223      25.276875000000
      1626    1        9.567000000000       3.682340016891      25.276875000000
      1627    1        9.567000000000       1.841170008446      22.684375000000
      1628    1       11.161500000000       4.602925021114      22.684375000000
      1629    2       11.161500000000       0.920585004223      23.332500000000
      1630    2        9.567000000000       3.682340016891      23.332500000000
      1631    2        9.567000000000       1.841170008446      20.740000000000
      1632    2       11.161500000000       4.602925021114      20.740000000000
      1633    1       14.350500000000       0.920585004223      25.276875000000
      1634    1       12.756000000000       3.682340016891      25.276875000000
      1635    1       12.756000000000       1.841170008446      22.684375000000
      1636    1       14.350500000000       4.602925021114      22.684375000000
      1637    2       14.350500000000       0.920585004223      23.332500000000
      1638    2       12.756000000000       3.682340016891      23.332500000000
      1639    2       12.756000000000       1.841170008446      20.740000000000
      1640    2       14.350500000000       4.602925021114      20.740000000000
      1641    1       17.539500000000       0.920585004223      25.276875000000
      1642    1       15.945000000000       3.682340016891      25.276875000000
      1643    1       15.945000000000       1.841170008446      22.684375000000
      1644    1       17.539500000000       4.602925021114      22.684375000000
      1645    2       17.539500000000       0.920585004223      23.332500000000
      1646    2       15.945000000000       3.682340016891      23.332500000000
      1647    2       15.945000000000       1.841170008446      20.740000000000
      1648    2       17.539500000000       4.602925021114      20.740000000000
      1649    1       20.728500000000       0.920585004223      25.276875000000
      1650    1       19.134000000000       3.682340016891      25.276875000000
      1651    1       19.134000000000       1.841170008446      22.684375000000
      1652    1       20.728500000000       4.602925021114      22.684375000000
      1653    2       20.728500000000       0.920585004223      23.332500000000
      1654    2       19.134000000000       3.682340016891      23.332500000000
      1655    2       19.134000000000       1.841170008446      20.740000000000
      1656    2       20.728500000000       4.602925021114      20.740000000000
      1657    1       23.917500000000       0.920585004223      25.276875000000
      1658    1       22.323000000000       3.682340016891      25.276875000000
      1659    1       22.323000000000       1.841170008446      22.684375000000
      1660    1       23.917500000000       4.602925021114      22.684375000000
      1661    2       23.917500000000       0.920585004223      23.332500000000
      1662    2       22.323000000000       3.682340016891      23.332500000000
      1663    2       22.323000000000       1.841170008446      20.740000000000
      1664    2       23.917500000000       4.602925021114      20.740000000000
      1665    1       27.106500000000       0.920585004223      25.276875000000
      1666    1       25.512000000000       3.682340016891      25.276875000000
      1667    1       25.512000000000       1.841170008446      22.684375000000
      1668    1       27.106500000000       4.602925021114      22.684375000000
      1669    2       27.106500000000       0.920585004223      23.332500000000
      1670    2       25.512000000000       3.682340016891      23.332500000000
      1671    2       25.512000000000       1.841170008446      20.740000000000
      1672    2       27.106500000000       4.602925021114      20.740000000000
      1673    1       30.295500000000       0.920585004223      25.276875000000
      1674    1       28.701000000000       3.682340016891      25.276875000000
      1675    1       28.701000000000       1.841170008446      22.684375000000
      1676    1       30.295500000000       4.602925021114      22.684375000000
      1677    2       30.295500000000       0.920585004223      23.332500000000
      1678    2       28.701000000000       3.682340016891      23.332500000000
      1679    2       28.701000000000       1.841170008446      20.740000000000
      1680    2       30.295500000000       4.602925021114      20.740000000000
      1681    1        1.594500000000       6.444095029560      25.276875000000
      1682    1        0.000000000000       9.205850042229      25.276875000000
      1683    1        0.000000000000       7.364680033783      22.684375000000
      1684    1        1.594500000000      10.126435046451      22.684375000000
      1685    2        1.594500000000       6.444095029560      23.332500000000
      1686    2        0.000000000000       9.205850042229      23.332500000000
      1687    2        0.000000000000       7.364680033783      20.740000000000
      1688    2        1.594500000000      10.126435046451      20.740000000000
      1689    1        4.783500000000       6.444095029560      25.276875000000
      1690    1        3.189000000000       9.205850042229      25.276875000000
      1691    1        3.189000000000       7.364680033783      22.684375000000
      1692    1        4.783500000000      10.126435046451      22.684375000000
      1693    2        4.783500000000       6.444095029560      23.332500000000
      1694    2        3.189000000000       9.205850042229      23.332500000000
      1695    2        3.189000000000       7.364680033783      20.740000000000
      1696    2        4.783500000000      10.126435046451      20.740000000000
      1697    1        7.972500000000       6.444095029560      25.276875000000
      1698    1        6.378000000000       9.205850042229      25.276875000000
      1699    1        6.378000000000       7.364680033783      22.684375000000
      1700    1        7.972500000000      10.126435046451      22.684375000000
      1701    2        7.972500000000       6.444095029560      23.332500000000
      1702    2        6.378000000000       9.205850042229      23.332500000000
      1703    2        6.378000000000       7.364680033783      20.740000000000
      1704    2        7.972500000000      10.126435046451      20.740000000000
      1705    1       11.161500000000       6.444095029560      25.276875000000
      1706    1        9.567000000000       9.205850042229      25.276875000000
      1707    1        9.567000000000       7.364680033783      22.684375000000
      1708    1       11.161500000000      10.126435046451      22.684375000000
      1709    2       11.161500000000       6.444095029560      23.332500000000
      1710    2        9.567000000000       9.205850042229      23.332500000000
      1711    2        9.567000000000       7.364680033783      20.740000000000
      1712    2       11.161500000000      10.126435046451      20.740000000000
      1713    1       14.350500000000       6.444095029560      25.276875000000
      1714    1       12.756000000000       9.205850042229      25.276875000000
      1715    1       12.756000000000       7.364680033783      22.684375000000
      1716    1       14.350500000000      10.126435046451      22.684375000000
      1717    2       14.350500000000       6.444095029560      23.332500000000
      1718    2       12.756000000000       9.205850042229      23.332500000000
      1719    2       12.756000000000       7.364680033783      20.740000000000
      1720    2       14.350500000000      10.126435046451      20.740000000000
      1721    1       17.539500000000       6.444095029560      25.276875000000
      1722    1       15.945000000000       9.205850042229      25.276875000000
      1723    1       15.945000000000       7.364680033783      22.684375000000
      1724    1       17.539500000000      10.126435046451      22.684375000000
      1725    2       17.539500000000       6.444095029560      23.332500000000
      1726    2       15.945000000000       9.205850042229      23.332500000000
      1727    2       15.945000000000       7.364680033783      20.740000000000
      1728    2       17.539500000000      10.126435046451      20.740000000000
      1729    1       20.728500000000       6.444095029560      25.276875000000
      1730    1       19.134000000000       9.205850042229      25.276875000000
      1731    1       19.134000000000       7.364680033783      22.684375000000
      1732    1       20.728500000000      10.126435046451      22.684375000000
      1733    2       20.728500000000       6.444095029560      23.332500000000
      1734    2       19.134000000000       9.205850042229      23.332500000000
      1735    2       19.134000000000       7.364680033783      20.740000000000
      1736    2       20.728500000000      10.126435046451      20.740000000000
      1737    1       23.917500000000       6.444095029560      25.276875000000
      1738    1       22.323000000000       9.205850042229      25.276875000000
      1739    1       22.323000000000       7.364680033783      22.684375000000
      1740    1       23.917500000000      10.126435046451      22.684375000000
      1741    2       23.917500000000       6.444095029560      23.332500000000
      1742    2       22.323000000000       9.205850042229      23.332500000000
      1743    2       22.323000000000       7.364680033783      20.740000000000
      1744    2       23.917500000000      10.126435046451      20.740000000000
      1745    1       27.106500000000       6.444095029560      25.276875000000
      1746    1       25.512000000000       9.205850042229      25.276875000000
      1747    1       25.512000000000       7.364680033783      22.684375000000
      1748    1       27.106500000000      10.126435046451      22.684375000000
      1749    2       27.106500000000       6.444095029560      23.332500000000
      1750    2       25.512000000000       9.205850042229      23.332500000000
      1751    2       25.512000000000       7.364680033783      20.740000000000
      1752    2       27.106500000000      10.126435046451      20.740000000000
      1753    1       30.295500000000       6.444095029560      25.276875000000
      1754    1       28.701000000000       9.205850042229      25.276875000000
      1755    1       28.701000000000       7.364680033783      22.684375000000
      1756    1       30.295500000000      10.126435046451      22.684375000000
      1757    2       30.295500000000       6.444095029560      23.332500000000
      1758    2       28.701000000000       9.205850042229      23.332500000000
      1759    2       28.701000000000       7.364680033783      20.740000000000
      1760    2       30.295500000000      10.126435046451      20.740000000000
      1761    1        1.594500000000      11.967605054897      25.276875000000
      1762    1        0.000000000000      14.729360067566      25.276875000000
      1763    1        0.000000000000      12.888190059120      22.684375000000
      1764    1        1.594500000000      15.649945071789      22.684375000000
      1765    2        1.594500000000      11.967605054897      23.332500000000
      1766    2        0.000000000000      14.729360067566      23.332500000000
      1767    2        0.000000000000      12.888190059120      20.740000000000
      1768    2        1.594500000000      15.649945071789      20.740000000000
      1769    1        4.783500000000      11.967605054897      25.276875000000
      1770    1        3.189000000000      14.729360067566      25.276875000000
      1771    1        3.189000000000      12.888190059120      22.684375000000
      1772    1        4.783500000000      15.649945071789      22.684375000000
      1773    2        4.783500000000      11.967605054897      23.332500000000
      1774    2        3.189000000000      14.729360067566      23.332500000000
      1775    2        3.189000000000      12.888190059120      20.740000000000
      1776    2        4.783500000000      15.649945071789      20.740000000000
      1777    1        7.972500000000      11.967605054897      25.276875000000
      1778    1        6.378000000000      14.729360067566      25.276875000000
      1779    1        6.378000000000      12.888190059120      22.684375000000
      1780    1        7.972500000000      15.649945071789      22.684375000000
      1781    2        7.972500000000      11.967605054897      23.332500000000
      1782    2        6.378000000000      14.729360067566      23.332500000000
      1783    2        6.378000000000      12.888190059120      20.740000000000
      1784    2        7.972500000000      15.649945071789      20.740000000000
      1785    1       11.161500000000      11.967605054897      25.276875000000
      1786    1        9.567000000000      14.729360067566      25.276875000000
      1787    1        9.567000000000      12.888190059120      22.684375000000
      1788    1       11.161500000000      15.649945071789      22.684375000000
      1789    2       11.161500000000      11.967605054897      23.332500000000
      1790    2        9.567000000000      14.729360067566      23.332500000000
      1791    2        9.567000000000      12.888190059120      20.740000000000
      1792    2       11.161500000000      15.649945071789      20.740000000000
      1793    1       14.350500000000      11.967605054897      25.276875000000
      1794    1       12.756000000000      14.729360067566      25.276875000000
      1795    1       12.756000000000      12.888190059120      22.684375000000
      1796    1       14.350500000000      15.649945071789      22.684375000000
      1797    2       14.350500000000      11.967605054897      23.332500000000
      1798    2       12.756000000000      14.729360067566      23.332500000000
      1799    2       12.756000000000      12.888190059120      20.740000000000
      1800    2       14.350500000000      15.649945071789      20.740000000000
      1801    1       17.539500000000      11.967605054897      25.276875000000
      1802    1       15.945000000000      14.729360067566      25.276875000000
      1803    1       15.945000000000      12.888190059120      22.684375000000
      1804    1       17.539500000000      15.649945071789      22.684375000000
      1805    2       17.539500000000      11.967605054897      23.332500000000
      1806    2       15.945000000000      14.729360067566      23.332500000000
      1807    2       15.945000000000      12.888190059120      20.740000000000
      1808    2       17.539500000000      15.649945071789      20.740000000000
      1809    1       20.728500000000      11.967605054897      25.276875000000
      1810    1       19.134000000000      14.729360067566      25.276875000000
      1811    1       19.134000000000      12.888190059120      22.684375000000
      1812    1       20.728500000000      15.649945071789      22.684375000000
      1813    2       20.728500000000      11.967605054897      23.332500000000
      1814    2       19.134000000000      14.729360067566      23.332500000000
      1815    2       19.134000000000      12.888190059120      20.740000000000
      1816    2       20.728500000000      15.649945071789      20.740000000000
      1817    1       23.917500000000      11.967605054897      25.276875000000
      1818    1       22.323000000000      14.729360067566      25.276875000000
      1819    1       22.323000000000      12.888190059120      22.684375000000
      1820    1       23.917500000000      15.649945071789      22.684375000000
      1821    2       23.917500000000      11.967605054897      23.332500000000
      1822    2       22.323000000000      14.729360067566      23.332500000000
      1823    2       22.323000000000      12.888190059120      20.740000000000
      1824    2       23.917500000000      15.649945071789      20.740000000000
      1825    1       27.106500000000      11.967605054897      25.276875000000
      1826    1       25.512000000000      14.729360067566      25.276875000000
      1827    1       25.512000000000      12.888190059120      22.684375000000
      1828    1       27.106500000000      15.649945071789      22.684375000000
      1829    2       27.106500000000      11.967605054897      23.332500000000
      1830    2       25.512000000000      14.729360067566      23.332500000000
      1831    2       25.512000000000      12.888190059120      20.740000000000
      1832    2       27.106500000000      15.649945071789      20.740000000000
      1833    1       30.295500000000      11.967605054897      25.276875000000
      1834    1       28.701000000000      14.729360067566      25.276875000000
      1835    1       28.701000000000      12.888190059120      22.684375000000
      1836    1       30.295500000000      15.649945071789      22.684375000000
      1837    2       30.295500000000      11.967605054897      23.332500000000
      1838    2       28.701000000000      14.729360067566      23.332500000000
      1839    2       28.701000000000      12.888190059120      20.740000000000
      1840    2       30.295500000000      15.649945071789      20.740000000000
      1841    1        1.594500000000      17.491115080234      25.276875000000
      1842    1        0.000000000000      20.252870092903      25.276875000000
      1843    1        0.000000000000      18.411700084457      22.684375000000
      1844    1        1.594500000000      21.173455097126      22.684375000000
      1845    2        1.594500000000      17.491115080234      23.332500000000
      1846    2        0.000000000000      20.252870092903      23.332500000000
      1847    2        0.000000000000      18.411700084457      20.740000000000
      1848    2        1.594500000000      21.173455097126      20.740000000000
      1849    1        4.783500000000      17.491115080234      25.276875000000
      1850    1        3.189000000000      20.252870092903      25.276875000000
      1851    1        3.189000000000      18.411700084457      22.684375000000
      1852    1        4.783500000000      21.173455097126      22.684375000000
      1853    2        4.783500000000      17.491115080234      23.332500000000
      1854    2        3.189000000000      20.252870092903      23.332500000000
      1855    2        3.189000000000      18.411700084457      20.740000000000
      1856    2        4.783500000000      21.173455097126      20.740000000000
      1857    1        7.972500000000      17.491115080234      25.276875000000
      1858    1        6.378000000000      20.252870092903      25.276875000000
      1859    1        6.378000000000      18.411700084457      22.684375000000
      1860    1        7.972500000000      21.173455097126      22.684375000000
      1861    2        7.972500000000      17.491115080234      23.332500000000
      1862    2        6.378000000000      20.252870092903      23.332500000000
      1863    2        6.378000000000      18.411700084457      20.740000000000
      1864    2        7.972500000000      21.173455097126      20.740000000000
      1865    1       11.161500000000      17.491115080234      25.276875000000
      1866    1        9.567000000000      20.252870092903      25.276875000000
      1867    1        9.567000000000      18.411700084457      22.684375000000
      1868    1       11.161500000000      21.173455097126      22.684375000000
      1869    2       11.161500000000      17.491115080234      23.332500000000
      1870    2        9.567000000000      20.252870092903      23.332500000000
      1871    2        9.567000000000      18.411700084457      20.740000000000
      1872    2       11.161500000000      21.173455097126      20.740000000000
      1873    1       14.350500000000      17.491115080234      25.276875000000
      1874    1       12.756000000000      20.252870092903      25.276875000000
      1875    1       12.756000000000      18.411700084457      22.684375000000
      1876    1       14.350500000000      21.173455097126      22.684375000000
      1877    2       14.350500000000      17.491115080234      23.332500000000
      1878    2       12.756000000000      20.252870092903      23.332500000000
      1879    2       12.756000000000      18.411700084457      20.740000000000
      1880    2       14.350500000000      21.173455097126      20.740000000000
      1881    1       17.539500000000      17.491115080234      25.276875000000
      1882    1       15.945000000000      20.252870092903      25.276875000000
      1883    1       15.945000000000      18.411700084457      22.684375000000
      1884    1       17.539500000000      21.173455097126      22.684375000000
      1885    2       17.539500000000      17.491115080234      23.332500000000
      1886    2       15.945000000000      20.252870092903      23.332500000000
      1887    2       15.945000000000      18.411700084457      20.740000000000
      1888    2       17.539500000000      21.173455097126      20.740000000000
      1889    1       20.728500000000      17.491115080234      25.276875000000
      1890    1       19.134000000000      20.252870092903      25.276875000000
      1891    1       19.134000000000      18.411700084457      22.684375000000
      1892    1       20.728500000000      21.173455097126      22.684375000000
      1893    2       20.728500000000      17.491115080234      23.332500000000
      1894    2       19.134000000000      20.252870092903      23.332500000000
      1895    2       19.134000000000      18.411700084457      20.740000000000
      1896    2       20.728500000000      21.173455097126      20.740000000000
      1897    1       23.917500000000      17.491115080234      25.276875000000
      1898    1       22.323000000000      20.252870092903      25.276875000000
      1899    1       22.323000000000      18.411700084457      22.684375000000
      1900    1       23.917500000000      21.173455097126      22.684375000000
      1901    2       23.917500000000      17.491115080234      23.332500000000
      1902    2       22.323000000000      20.252870092903      23.332500000000
      1903    2       22.323000000000      18.411700084457      20.740000000000
      1904    2       23.917500000000      21.173455097126      20.740000000000
      1905    1       27.106500000000      17.491115080234      25.276875000000
      1906    1       25.512000000000      20.252870092903      25.276875000000
      1907    1       25.512000000000      18.411700084457      22.684375000000
      1908    1       27.106500000000      21.173455097126      22.684375000000
      1909    2       27.106500000000      17.491115080234      23.332500000000
      1910    2       25.512000000000      20.252870092903      23.332500000000
      1911    2       25.512000000000      18.411700084457      20.740000000000
      1912    2       27.106500000000      21.173455097126      20.740000000000
      1913    1       30.295500000000      17.491115080234      25.276875000000
      1914    1       28.701000000000      20.252870092903      25.276875000000
      1915    1       28.701000000000      18.411700084457      22.684375000000
      1916    1       30.295500000000      21.173455097126      22.684375000000
      1917    2       30.295500000000      17.491115080234      23.332500000000
      1918    2       28.701000000000      20.252870092903      23.332500000000
      1919    2       28.701000000000      18.411700084457      20.740000000000
      1920    2       30.295500000000      21.173455097126      20.740000000000
      1921    1        1.594500000000      23.014625105571      25.276875000000
      1922    1        0.000000000000      25.776380118240      25.276875000000
      1923    1        0.000000000000      23.935210109794      22.684375000000
      1924    1        1.594500000000      26.696965122463      22.684375000000
      1925    2        1.594500000000      23.014625105571      23.332500000000
      1926    2        0.000000000000      25.776380118240      23.332500000000
      1927    2        0.000000000000      23.935210109794      20.740000000000
      1928    2        1.594500000000      26.696965122463      20.740000000000
      1929    1        4.783500000000      23.014625105571      25.276875000000
      1930    1        3.189000000000      25.776380118240      25.276875000000
      1931    1        3.189000000000      23.935210109794      22.684375000000
      1932    1        4.783500000000      26.696965122463      22.684375000000
      1933    2        4.783500000000      23.014625105571      23.332500000000
      1934    2        3.189000000000      25.776380118240      23.332500000000
      1935    2        3.189000000000      23.935210109794      20.740000000000
      1936    2        4.783500000000      26.696965122463      20.740000000000
      1937    1        7.972500000000      23.014625105571      25.276875000000
      1938    1        6.378000000000      25.776380118240      25.276875000000
      1939    1        6.378000000000      23.935210109794      22.684375000000
      1940    1        7.972500000000      26.696965122463      22.684375000000
      1941    2        7.972500000000      23.014625105571      23.332500000000
      1942    2        6.378000000000      25.776380118240      23.332500000000
      1943    2        6.378000000000      23.935210109794      20.740000000000
      1944    2        7.972500000000      26.696965122463      20.740000000000
      1945    1       11.161500000000      23.014625105571      25.276875000000
      1946    1        9.567000000000      25.776380118240      25.276875000000
      1947    1        9.567000000000      23.935210109794      22.684375000000
      1948    1       11.161500000000      26.696965122463      22.684375000000
      1949    2       11.161500000000      23.014625105571      23.332500000000
      1950    2        9.567000000000      25.776380118240      23.332500000000
      1951    2        9.567000000000      23.935210109794      20.740000000000
      1952    2       11.161500000000      26.696965122463      20.740000000000
      1953    1       14.350500000000      23.014625105571      25.276875000000
      1954    1       12.756000000000      25.776380118240      25.276875000000
      1955    1       12.756000000000      23.935210109794      22.684375000000
      1956    1       14.350500000000      26.696965122463      22.684375000000
      1957    2       14.350500000000      23.014625105571      23.332500000000
      1958    2       12.756000000000      25.776380118240      23.332500000000
      1959    2       12.756000000000      23.935210109794      20.740000000000
      1960    2       14.350500000000      26.696965122463      20.740000000000
      1961    1       17.539500000000      23.014625105571      25.276875000000
      1962    1       15.945000000000      25.776380118240      25.276875000000
      1963    1       15.945000000000      23.935210109794      22.684375000000
      1964    1       17.539500000000      26.696965122463      22.684375000000
      1965    2       17.539500000000      23.014625105571      23.332500000000
      1966    2       15.945000000000      25.776380118240      23.332500000000
      1967    2       15.945000000000      23.935210109794      20.740000000000
      1968    2       17.539500000000      26.696965122463      20.740000000000
      1969    1       20.728500000000      23.014625105571      25.276875000000
      1970    1       19.134000000000      25.776380118240      25.276875000000
      1971    1       19.134000000000      23.935210109794      22.684375000000
      1972    1       20.728500000000      26.696965122463      22.684375000000
      1973    2       20.728500000000      23.014625105571      23.332500000000
      1974    2       19.134000000000      25.776380118240      23.332500000000
      1975    2       19.134000000000      23.935210109794      20.740000000000
      1976    2       20.728500000000      26.696965122463      20.740000000000
      1977    1       23.917500000000      23.014625105571      25.276875000000
      1978    1       22.323000000000      25.776380118240      25.276875000000
      1979    1       22.323000000000      23.935210109794      22.684375000000
      1980    1       23.917500000000      26.696965122463      22.684375000000
      1981    2       23.917500000000      23.014625105571      23.332500000000
      1982    2       22.323000000000      25.776380118240      23.332500000000
      1983    2       22.323000000000      23.935210109794      20.740000000000
      1984    2       23.917500000000      26.696965122463      20.740000000000
      1985    1       27.106500000000      23.014625105571      25.276875000000
      1986    1       25.512000000000      25.776380118240      25.276875000000
      1987    1       25.512000000000      23.935210109794      22.684375000000
      1988    1       27.106500000000      26.696965122463      22.684375000000
      1989    2       27.106500000000      23.014625105571      23.332500000000
      1990    2       25.512000000000      25.776380118240      23.332500000000
      1991    2       25.512000000000      23.935210109794      20.740000000000
      1992    2       27.106500000000      26.696965122463      20.740000000000
      1993    1       30.295500000000      23.014625105571      25.276875000000
      1994    1       28.701000000000      25.776380118240      25.276875000000
      1995    1       28.701000000000      23.935210109794      22.684375000000
      1996    1       30.295500000000      26.696965122463      22.684375000000
      1997    2       30.295500000000      23.014625105571      23.332500000000
      1998    2       28.701000000000      25.776380118240      23.332500000000
      1999    2       28.701000000000      23.935210109794      20.740000000000
      2000    2       30.295500000000      26.696965122463      20.740000000000
      2001    1        1.594500000000       0.920585004223      30.461875000000
      2002    1        0.000000000000       3.682340016891      30.461875000000
      2003    1        0.000000000000       1.841170008446      27.869375000000
      2004    1        1.594500000000       4.602925021114      27.869375000000
      2005    2        1.594500000000       0.920585004223      28.517500000000
      2006    2        0.000000000000       3.682340016891      28.517500000000
      2007    2        0.000000000000       1.841170008446      25.925000000000
      2008    2        1.594500000000       4.602925021114      25.925000000000
      2009    1        4.783500000000       0.920585004223      30.461875000000
      2010    1        3.189000000000       3.682340016891      30.461875000000
      2011    1        3.189000000000       1.841170008446      27.869375000000
      2012    1        4.783500000000       4.602925021114      27.869375000000
      2013    2        4.783500000000       0.920585004223      28.517500000000
      2014    2        3.189000000000       3.682340016891      28.517500000000
      2015    2        3.189000000000       1.841170008446      25.925000000000
      2016    2        4.783500000000       4.602925021114      25.925000000000
      2017    1        7.972500000000       0.920585004223      30.461875000000
      2018    1        6.378000000000       3.682340016891      30.461875000000
      2019    1        6.378000000000       1.841170008446      27.869375000000
      2020    1        7.972500000000       4.602925021114      27.869375000000
      2021    2        7.972500000000       0.920585004223      28.517500000000
      2022    2        6.378000000000       3.682340016891      28.517500000000
      2023    2        6.378000000000       1.841170008446      25.925000000000
      2024    2        7.972500000000       4.602925021114      25.925000000000
      2025    1       11.161500000000       0.920585004223      30.461875000000
      2026    1        9.567000000000       3.682340016891      30.461875000000
      2027    1        9.567000000000       1.841170008446      27.869375000000
      2028    1       11.161500000000       4.602925021114      27.869375000000
      2029    2       11.161500000000       0.920585004223      28.517500000000
      2030    2        9.567000000000       3.682340016891      28.517500000000
      2031    2        9.567000000000       1.841170008446      25.925000000000
      2032    2       11.161500000000       4.602925021114      25.925000000000
      2033    1       14.350500000000       0.920585004223      30.461875000000
      2034    1       12.756000000000       3.682340016891      30.461875000000
      2035    1       12.756000000000       1.841170008446      27.869375000000
      2036    1       14.350500000000       4.602925021114      27.869375000000
      2037    2       14.350500000000       0.920585004223      28.517500000000
      2038    2       12.756000000000       3.682340016891      28.517500000000
      2039    2       12.756000000000       1.841170008446      25.925000000000
      2040    2       14.350500000000       4.602925021114      25.925000000000
      2041    1       17.539500000000       0.920585004223      30.461875000000
      2042    1       15.945000000000       3.682340016891      30.461875000000
      2043    1       15.945000000000       1.841170008446      27.869375000000
      2044    1       17.539500000000       4.602925021114      27.869375000000
      2045    2       17.539500000000       0.920585004223      28.517500000000
      2046    2       15.945000000000       3.682340016891      28.517500000000
      2047    2       15.945000000000       1.841170008446      25.925000000000
      2048    2       17.539500000000       4.602925021114      25.925000000000
      2049    1       20.728500000000       0.920585004223      30.461875000000
      2050    1       19.134000000000       3.682340016891      30.461875000000
      2051    1       19.134000000000       1.841170008446      27.869375000000
      2052    1       20.728500000000       4.602925021114      27.869375000000
      2053    2       20.728500000000       0.920585004223      28.517500000000
      2054    2       19.134000000000       3.682340016891      28.517500000000
      2055    2       19.134000000000       1.841170008446      25.925000000000
      2056    2       20.728500000000       4.602925021114      25.925000000000
      2057    1       23.917500000000       0.920585004223      30.461875000000
      2058    1       22.323000000000       3.682340016891      30.461875000000
      2059    1       22.323000000000       1.841170008446      27.869375000000
      2060    1       23.917500000000       4.602925021114      27.869375000000
      2061    2       23.917500000000       0.920585004223      28.517500000000
      2062    2       22.323000000000       3.682340016891      28.517500000000
      2063    2       22.323000000000       1.841170008446      25.925000000000
      2064    2       23.917500000000       4.602925021114      25.925000000000
      2065    1       27.106500000000       0.920585004223      30.461875000000
      2066    1       25.512000000000       3.682340016891      30.461875000000
      2067    1       25.512000000000       1.841170008446      27.869375000000
      2068    1       27.106500000000       4.602925021114      27.869375000000
      2069    2       27.106500000000       0.920585004223      28.517500000000
      2070    2       25.512000000000       3.682340016891      28.517500000000
      2071    2       25.512000000000       1.841170008446      25.925000000000
      2072    2       27.106500000000       4.602925021114      25.925000000000
      2073    1       30.295500000000       0.920585004223      30.461875000000
      2074    1       28.701000000000       3.682340016891      30.461875000000
      2075    1       28.701000000000       1.841170008446      27.869375000000
      2076    1       30.295500000000       4.602925021114      27.869375000000
      2077    2       30.295500000000       0.920585004223      28.517500000000
      2078    2       28.701000000000       3.682340016891      28.517500000000
      2079    2       28.701000000000       1.841170008446      25.925000000000
      2080    2       30.295500000000       4.602925021114      25.925000000000
      2081    1        1.594500000000       6.444095029560      30.461875000000
      2082    1        0.000000000000       9.205850042229      30.461875000000
      2083    1        0.000000000000       7.364680033783      27.869375000000
      2084    1        1.594500000000      10.126435046451      27.869375000000
      2085    2        1.594500000000       6.444095029560      28.517500000000
      2086    2        0.000000000000       9.205850042229      28.517500000000
      2087    2        0.000000000000       7.364680033783      25.925000000000
      2088    2        1.594500000000      10.126435046451      25.925000000000
      2089    1        4.783500000000       6.444095029560      30.461875000000
      2090    1        3.189000000000       9.205850042229      30.461875000000
      2091    1        3.189000000000       7.364680033783      27.869375000000
      2092    1        4.783500000000      10.126435046451      27.869375000000
      2093    2        4.783500000000       6.444095029560      28.517500000000
      2094    2        3.189000000000       9.205850042229      28.517500000000
      2095    2        3.189000000000       7.364680033783      25.925000000000
      2096    2        4.783500000000      10.126435046451      25.925000000000
      2097    1        7.972500000000       6.444095029560      30.461875000000
      2098    1        6.378000000000       9.205850042229      30.461875000000
      2099    1        6.378000000000       7.364680033783      27.869375000000
      2100    1        7.972500000000      10.126435046451      27.869375000000
      2101    2        7.972500000000       6.444095029560      28.517500000000
      2102    2        6.378000000000       9.205850042229      28.517500000000
      2103    2        6.378000000000       7.364680033783      25.925000000000
      2104    2        7.972500000000      10.126435046451      25.925000000000
      2105    1       11.161500000000       6.444095029560      30.461875000000
      2106    1        9.567000000000       9.205850042229      30.461875000000
      2107    1        9.567000000000       7.364680033783      27.869375000000
      2108    1       11.161500000000      10.126435046451      27.869375000000
      2109    2       11.161500000000       6.444095029560      28.517500000000
      2110    2        9.567000000000       9.205850042229      28.517500000000
      2111    2        9.567000000000       7.364680033783      25.925000000000
      2112    2       11.161500000000      10.126435046451      25.925000000000
      2113    1       14.350500000000       6.444095029560      30.461875000000
      2114    1       12.756000000000       9.205850042229      30.461875000000
      2115    1       12.756000000000       7.364680033783      27.869375000000
      2116    1       14.350500000000      10.126435046451      27.869375000000
      2117    2       14.350500000000       6.444095029560      28.517500000000
      2118    2       12.756000000000       9.205850042229      28.517500000000
      2119    2       12.756000000000       7.364680033783      25.925000000000
      2120    2       14.350500000000      10.126435046451      25.925000000000
      2121    1       17.539500000000       6.444095029560      30.461875000000
      2122    1       15.945000000000       9.205850042229      30.461875000000
      2123    1       15.945000000000       7.364680033783      27.869375000000
      2124    1       17.539500000000      10.126435046451      27.869375000000
      2125    2       17.539500000000       6.444095029560      28.517500000000
      2126    2       15.945000000000       9.205850042229      28.517500000000
      2127    2       15.945000000000       7.364680033783      25.925000000000
      2128    2       17.539500000000      10.126435046451      25.925000000000
      2129    1       20.728500000000       6.444095029560      30.461875000000
      2130    1       19.134000000000       9.205850042229      30.461875000000
      2131    1       19.134000000000       7.364680033783      27.869375000000
      2132    1       20.728500000000      10.126435046451      27.869375000000
      2133    2       20.728500000000       6.444095029560      28.517500000000
      2134    2       19.134000000000       9.205850042229      28.517500000000
      2135    2       19.134000000000       7.364680033783      25.925000000000
      2136    2       20.728500000000      10.126435046451      25.925000000000
      2137    1       23.917500000000       6.444095029560      30.461875000000
      2138    1       22.323000000000       9.205850042229      30.461875000000
      2139    1       22.323000000000       7.364680033783      27.869375000000
      2140    1       23.917500000000      10.126435046451      27.869375000000
      2141    2       23.917500000000       6.444095029560      28.517500000000
      2142    2       22.323000000000       9.205850042229      28.517500000000
      2143    2       22.323000000000       7.364680033783      25.925000000000
      2144    2       23.917500000000      10.126435046451      25.925000000000
      2145    1       27.106500000000       6.444095029560      30.461875000000
      2146    1       25.512000000000       9.205850042229      30.461875000000
      2147    1       25.512000000000       7.364680033783      27.869375000000
      2148    1       27.106500000000      10.126435046451      27.869375000000
      2149    2       27.106500000000       6.444095029560      28.517500000000
      2150    2       25.512000000000       9.205850042229      28.517500000000
      2151    2       25.512000000000       7.364680033783      25.925000000000
      2152    2       27.106500000000      10.126435046451      25.925000000000
      2153    1       30.295500000000       6.444095029560      30.461875000000
      2154    1       28.701000000000       9.205850042229      30.461875000000
      2155    1       28.701000000000       7.364680033783      27.869375000000
      2156    1       30.295500000000      10.126435046451      27.869375000000
      2157    2       30.295500000000       6.444095029560      28.517500000000
      2158    2       28.701000000000       9.205850042229      28.517500000000
      2159    2       28.701000000000       7.364680033783      25.925000000000
      2160    2       30.295500000000      10.126435046451      25.925000000000
      2161    1        1.594500000000      11.967605054897      30.461875000000
      2162    1        0.000000000000      14.729360067566      30.461875000000
      2163    1        0.000000000000      12.888190059120      27.869375000000
      2164    1        1.594500000000      15.649945071789      27.869375000000
      2165    2        1.594500000000      11.967605054897      28.517500000000
      2166    2        0.000000000000      14.729360067566      28.517500000000
      2167    2        0.000000000000      12.888190059120      25.925000000000
      2168    2        1.594500000000      15.649945071789      25.925000000000
      2169    1        4.783500000000      11.967605054897      30.461875000000
      2170    1        3.189000000000      14.729360067566      30.461875000000
      2171    1        3.189000000000      12.888190059120      27.869375000000
      2172    1        4.783500000000      15.649945071789      27.869375000000
      2173    2        4.783500000000      11.967605054897      28.517500000000
      2174    2        3.189000000000      14.729360067566      28.517500000000
      2175    2        3.189000000000      12.888190059120      25.925000000000
      2176    2        4.783500000000      15.649945071789      25.925000000000
      2177    1        7.972500000000      11.967605054897      30.461875000000
      2178    1        6.378000000000      14.729360067566      30.461875000000
      2179    1        6.378000000000      12.888190059120      27.869375000000
      2180    1        7.972500000000      15.649945071789      27.869375000000
      2181    2        7.972500000000      11.967605054897      28.517500000000
      2182    2        6.378000000000      14.729360067566      28.517500000000
      2183    2        6.378000000000      12.888190059120      25.925000000000
      2184    2        7.972500000000      15.649945071789      25.925000000000
      2185    1       11.161500000000      11.967605054897      30.461875000000
      2186    1        9.567000000000      14.729360067566      30.461875000000
      2187    1        9.567000000000      12.888190059120      27.869375000000
      2188    1       11.161500000000      15.649945071789      27.869375000000
      2189    2       11.161500000000      11.967605054897      28.517500000000
      2190    2        9.567000000000      14.729360067566      28.517500000000
      2191    2        9.567000000000      12.888190059120      25.925000000000
      2192    2       11.161500000000      15.649945071789      25.925000000000
      2193    1       14.350500000000      11.967605054897      30.461875000000
      2194    1       12.756000000000      14.729360067566      30.461875000000
      2195    1       12.756000000000      12.888190059120      27.869375000000
      2196    1       14.350500000000      15.649945071789      27.869375000000
      2197    2       14.350500000000      11.967605054897      28.517500000000
      2198    2       12.756000000000      14.729360067566      28.517500000000
      2199    2       12.756000000000      12.888190059120      25.925000000000
      2200    2       14.350500000000      15.649945071789      25.925000000000
      2201    1       17.539500000000      11.967605054897      30.461875000000
      2202    1       15.945000000000      14.729360067566      30.461875000000
      2203    1       15.945000000000      12.888190059120      27.869375000000
      2204    1       17.539500000000      15.649945071789      27.869375000000
      2205    2       17.539500000000      11.967605054897      28.517500000000
      2206    2       15.945000000000      14.729360067566      28.517500000000
      2207    2       15.945000000000      12.888190059120      25.925000000000
      2208    2       17.539500000000      15.649945071789      25.925000000000
      2209    1       20.728500000000      11.967605054897      30.461875000000
      2210    1       19.134000000000      14.729360067566      30.461875000000
      2211    1       19.134000000000      12.888190059120      27.869375000000
      2212    1       20.728500000000      15.649945071789      27.869375000000
      2213    2       20.728500000000      11.967605054897      28.517500000000
      2214    2       19.134000000000      14.729360067566      28.517500000000
      2215    2       19.134000000000      12.888190059120      25.925000000000
      2216    2       20.728500000000      15.649945071789      25.925000000000
      2217    1       23.917500000000      11.967605054897      30.461875000000
      2218    1       22.323000000000      14.729360067566      30.461875000000
      2219    1       22.323000000000      12.888190059120      27.869375000000
      2220    1       23.917500000000      15.649945071789      27.869375000000
      2221    2       23.917500000000      11.967605054897      28.517500000000
      2222    2       22.323000000000      14.729360067566      28.517500000000
      2223    2       22.323000000000      12.888190059120      25.925000000000
      2224    2       23.917500000000      15.649945071789      25.925000000000
      2225    1       27.106500000000      11.967605054897      30.461875000000
      2226    1       25.512000000000      14.729360067566      30.461875000000
      2227    1       25.512000000000      12.888190059120      27.869375000000
      2228    1       27.106500000000      15.649945071789      27.869375000000
      2229    2       27.106500000000      11.967605054897      28.517500000000
      2230    2       25.512000000000      14.729360067566      28.517500000000
      2231    2       25.512000000000      12.888190059120      25.925000000000
      2232    2       27.106500000000      15.649945071789      25.925000000000
      2233    1       30.295500000000      11.967605054897      30.461875000000
      2234    1       28.701000000000      14.729360067566      30.461875000000
      2235    1       28.701000000000      12.888190059120      27.869375000000
      2236    1       30.295500000000      15.649945071789      27.869375000000
      2237    2       30.295500000000      11.967605054897      28.517500000000
      2238    2       28.701000000000      14.729360067566      28.517500000000
      2239    2       28.701000000000      12.888190059120      25.925000000000
      2240    2       30.295500000000      15.649945071789      25.925000000000
      2241    1        1.594500000000      17.491115080234      30.461875000000
      2242    1        0.000000000000      20.252870092903      30.461875000000
      2243    1        0.000000000000      18.411700084457      27.869375000000
      2244    1        1.594500000000      21.173455097126      27.869375000000
      2245    2        1.594500000000      17.491115080234      28.517500000000
      2246    2        0.000000000000      20.252870092903      28.517500000000
      2247    2        0.000000000000      18.411700084457      25.925000000000
      2248    2        1.594500000000      21.173455097126      25.925000000000
      2249    1        4.783500000000      17.491115080234      30.461875000000
      2250    1        3.189000000000      20.252870092903      30.461875000000
      2251    1        3.189000000000      18.411700084457      27.869375000000
      2252    1        4.783500000000      21.173455097126      27.869375000000
      2253    2        4.783500000000      17.491115080234      28.517500000000
      2254    2        3.189000000000      20.252870092903      28.517500000000
      2255    2        3.189000000000      18.411700084457      25.925000000000
      2256    2        4.783500000000      21.173455097126      25.925000000000
      2257    1        7.972500000000      17.491115080234      30.461875000000
      2258    1        6.378000000000      20.252870092903      30.461875000000
      2259    1        6.378000000000      18.411700084457      27.869375000000
      2260    1        7.972500000000      21.173455097126      27.869375000000
      2261    2        7.972500000000      17.491115080234      28.517500000000
      2262    2        6.378000000000      20.252870092903      28.517500000000
      2263    2        6.378000000000      18.411700084457      25.925000000000
      2264    2        7.972500000000      21.173455097126      25.925000000000
      2265    1       11.161500000000      17.491115080234      30.461875000000
      2266    1        9.567000000000      20.252870092903      30.461875000000
      2267    1        9.567000000000      18.411700084457      27.869375000000
      2268    1       11.161500000000      21.173455097126      27.869375000000
      2269    2       11.161500000000      17.491115080234      28.517500000000
      2270    2        9.567000000000      20.252870092903      28.517500000000
      2271    2        9.567000000000      18.411700084457      25.925000000000
      2272    2       11.161500000000      21.173455097126      25.925000000000
      2273    1       14.350500000000      17.491115080234      30.461875000000
      2274    1       12.756000000000      20.252870092903      30.461875000000
      2275    1       12.756000000000      18.411700084457      27.869375000000
      2276    1       14.350500000000      21.173455097126      27.869375000000
      2277    2       14.350500000000      17.491115080234      28.517500000000
      2278    2       12.756000000000      20.252870092903      28.517500000000
      2279    2       12.756000000000      18.411700084457      25.925000000000
      2280    2       14.350500000000      21.173455097126      25.925000000000
      2281    1       17.539500000000      17.491115080234      30.461875000000
      2282    1       15.945000000000      20.252870092903      30.461875000000
      2283    1       15.945000000000      18.411700084457      27.869375000000
      2284    1       17.539500000000      21.173455097126      27.869375000000
      2285    2       17.539500000000      17.491115080234      28.517500000000
      2286    2       15.945000000000      20.252870092903      28.517500000000
      2287    2       15.945000000000      18.411700084457      25.925000000000
      2288    2       17.539500000000      21.173455097126      25.925000000000
      2289    1       20.728500000000      17.491115080234      30.461875000000
      2290    1       19.134000000000      20.252870092903      30.461875000000
      2291    1       19.134000000000      18.411700084457      27.869375000000
      2292    1       20.728500000000      21.173455097126      27.869375000000
      2293    2       20.728500000000      17.491115080234      28.517500000000
      2294    2       19.134000000000      20.252870092903      28.517500000000
      2295    2       19.134000000000      18.411700084457      25.925000000000
      2296    2       20.728500000000      21.173455097126      25.925000000000
      2297    1       23.917500000000      17.491115080234      30.461875000000
      2298    1       22.323000000000      20.252870092903      30.461875000000
      2299    1       22.323000000000      18.411700084457      27.869375000000
      2300    1       23.917500000000      21.173455097126      27.869375000000
      2301    2       23.917500000000      17.491115080234      28.517500000000
      2302    2       22.323000000000      20.252870092903      28.517500000000
      2303    2       22.323000000000      18.411700084457      25.925000000000
      2304    2       23.917500000000      21.173455097126      25.925000000000
      2305    1       27.106500000000      17.491115080234      30.461875000000
      2306    1       25.512000000000      20.252870092903      30.461875000000
      2307    1       25.512000000000      18.411700084457      27.869375000000
      2308    1       27.106500000000      21.173455097126      27.869375000000
      2309    2       27.106500000000      17.491115080234      28.517500000000
      2310    2       25.512000000000      20.252870092903      28.517500000000
      2311    2       25.512000000000      18.411700084457      25.925000000000
      2312    2       27.106500000000      21.173455097126      25.925000000000
      2313    1       30.295500000000      17.491115080234      30.461875000000
      2314    1       28.701000000000      20.252870092903      30.461875000000
      2315    1       28.701000000000      18.411700084457      27.869375000000
      2316    1       30.295500000000      21.173455097126      27.869375000000
      2317    2       30.295500000000      17.491115080234      28.517500000000
      2318    2       28.701000000000      20.252870092903      28.517500000000
      2319    2       28.701000000000      18.411700084457      25.925000000000
      2320    2       30.295500000000      21.173455097126      25.925000000000
      2321    1        1.594500000000      23.014625105571      30.461875000000
      2322    1        0.000000000000      25.776380118240      30.461875000000
      2323    1        0.000000000000      23.935210109794      27.869375000000
      2324    1        1.594500000000      26.696965122463      27.869375000000
      2325    2        1.594500000000      23.014625105571      28.517500000000
      2326    2        0.000000000000      25.776380118240      28.517500000000
      2327    2        0.000000000000      23.935210109794      25.925000000000
      2328    2        1.594500000000      26.696965122463      25.925000000000
      2329    1        4.783500000000      23.014625105571      30.461875000000
      2330    1        3.189000000000      25.776380118240      30.461875000000
      2331    1        3.189000000000      23.935210109794      27.869375000000
      2332    1        4.783500000000      26.696965122463      27.869375000000
      2333    2        4.783500000000      23.014625105571      28.517500000000
      2334    2        3.189000000000      25.776380118240      28.517500000000
      2335    2        3.189000000000      23.935210109794      25.925000000000
      2336    2        4.783500000000      26.696965122463      25.925000000000
      2337    1        7.972500000000      23.014625105571      30.461875000000
      2338    1        6.378000000000      25.776380118240      30.461875000000
      2339    1        6.378000000000      23.935210109794      27.869375000000
      2340    1        7.972500000000      26.696965122463      27.869375000000
      2341    2        7.972500000000      23.014625105571      28.517500000000
      2342    2        6.378000000000      25.776380118240      28.517500000000
      2343    2        6.378000000000      23.935210109794      25.925000000000
      2344    2        7.972500000000      26.696965122463      25.925000000000
      2345    1       11.161500000000      23.014625105571      30.461875000000
      2346    1        9.567000000000      25.776380118240      30.461875000000
      2347    1        9.567000000000      23.935210109794      27.869375000000
      2348    1       11.161500000000      26.696965122463      27.869375000000
      2349    2       11.161500000000      23.014625105571      28.517500000000
      2350    2        9.567000000000      25.776380118240      28.517500000000
      2351    2        9.567000000000      23.935210109794      25.925000000000
      2352    2       11.161500000000      26.696965122463      25.925000000000
      2353    1       14.350500000000      23.014625105571      30.461875000000
      2354    1       12.756000000000      25.776380118240      30.461875000000
      2355    1       12.756000000000      23.935210109794      27.869375000000
      2356    1       14.350500000000      26.696965122463      27.869375000000
      2357    2       14.350500000000      23.014625105571      28.517500000000
      2358    2       12.756000000000      25.776380118240      28.517500000000
      2359    2       12.756000000000      23.935210109794      25.925000000000
      2360    2       14.350500000000      26.696965122463      25.925000000000
      2361    1       17.539500000000      23.014625105571      30.461875000000
      2362    1       15.945000000000      25.776380118240      30.461875000000
      2363    1       15.945000000000      23.935210109794      27.869375000000
      2364    1       17.539500000000      26.696965122463      27.869375000000
      2365    2       17.539500000000      23.014625105571      28.517500000000
      2366    2       15.945000000000      25.776380118240      28.517500000000
      2367    2       15.945000000000      23.935210109794      25.925000000000
      2368    2       17.539500000000      26.696965122463      25.925000000000
      2369    1       20.728500000000      23.014625105571      30.461875000000
      2370    1       19.134000000000      25.776380118240      30.461875000000
      2371    1       19.134000000000      23.935210109794      27.869375000000
      2372    1       20.728500000000      26.696965122463      27.869375000000
      2373    2       20.728500000000      23.014625105571      28.517500000000
      2374    2       19.134000000000      25.776380118240      28.517500000000
      2375    2       19.134000000000      23.935210109794      25.925000000000
      2376    2       20.728500000000      26.696965122463      25.925000000000
      2377    1       23.917500000000      23.014625105571      30.461875000000
      2378    1       22.323000000000      25.776380118240      30.461875000000
      2379    1       22.323000000000      23.935210109794      27.869375000000
      2380    1       23.917500000000      26.696965122463      27.869375000000
      2381    2       23.917500000000      23.014625105571      28.517500000000
      2382    2       22.323000000000      25.776380118240      28.517500000000
      2383    2       22.323000000000      23.935210109794      25.925000000000
      2384    2       23.917500000000      26.696965122463      25.925000000000
      2385    1       27.106500000000      23.014625105571      30.461875000000
      2386    1       25.512000000000      25.776380118240      30.461875000000
      2387    1       25.512000000000      23.935210109794      27.869375000000
      2388    1       27.106500000000      26.696965122463      27.869375000000
      2389    2       27.106500000000      23.014625105571      28.517500000000
      2390    2       25.512000000000      25.776380118240      28.517500000000
      2391    2       25.512000000000      23.935210109794      25.925000000000
      2392    2       27.106500000000      26.696965122463      25.925000000000
      2393    1       30.295500000000      23.014625105571      30.461875000000
      2394    1       28.701000000000      25.776380118240      30.461875000000
      2395    1       28.701000000000      23.935210109794      27.869375000000
      2396    1       30.295500000000      26.696965122463      27.869375000000
      2397    2       30.295500000000      23.014625105571      28.517500000000
      2398    2       28.701000000000      25.776380118240      28.517500000000
      2399    2       28.701000000000      23.935210109794      25.925000000000
      2400    2       30.295500000000      26.696965122463      25.925000000000
      2401    1        1.594500000000       0.920585004223      35.646875000000
      2402    1        0.000000000000       3.682340016891      35.646875000000
      2403    1        0.000000000000       1.841170008446      33.054375000000
      2404    1        1.594500000000       4.602925021114      33.054375000000
      2405    2        1.594500000000       0.920585004223      33.702500000000
      2406    2        0.000000000000       3.682340016891      33.702500000000
      2407    2        0.000000000000       1.841170008446      31.110000000000
      2408    2        1.594500000000       4.602925021114      31.110000000000
      2409    1        4.783500000000       0.920585004223      35.646875000000
      2410    1        3.189000000000       3.682340016891      35.646875000000
      2411    1        3.189000000000       1.841170008446      33.054375000000
      2412    1        4.783500000000       4.602925021114      33.054375000000
      2413    2        4.783500000000       0.920585004223      33.702500000000
      2414    2        3.189000000000       3.682340016891      33.702500000000
      2415    2        3.189000000000       1.841170008446      31.110000000000
      2416    2        4.783500000000       4.602925021114      31.110000000000
      2417    1        7.972500000000       0.920585004223      35.646875000000
      2418    1        6.378000000000       3.682340016891      35.646875000000
      2419    1        6.378000000000       1.841170008446      33.054375000000
      2420    1        7.972500000000       4.602925021114      33.054375000000
      2421    2        7.972500000000       0.920585004223      33.702500000000
      2422    2        6.378000000000       3.682340016891      33.702500000000
      2423    2        6.378000000000       1.841170008446      31.110000000000
      2424    2        7.972500000000       4.602925021114      31.110000000000
      2425    1       11.161500000000       0.920585004223      35.646875000000
      2426    1        9.567000000000       3.682340016891      35.646875000000
      2427    1        9.567000000000       1.841170008446      33.054375000000
      2428    1       11.161500000000       4.602925021114      33.054375000000
      2429    2       11.161500000000       0.920585004223      33.702500000000
      2430    2        9.567000000000       3.682340016891      33.702500000000
      2431    2        9.567000000000       1.841170008446      31.110000000000
      2432    2       11.161500000000       4.602925021114      31.110000000000
      2433    1       14.350500000000       0.920585004223      35.646875000000
      2434    1       12.756000000000       3.682340016891      35.646875000000
      2435    1       12.756000000000       1.841170008446      33.054375000000
      2436    1       14.350500000000       4.602925021114      33.054375000000
      2437    2       14.350500000000       0.920585004223      33.702500000000
      2438    2       12.756000000000       3.682340016891      33.702500000000
      2439    2       12.756000000000       1.841170008446      31.110000000000
      2440    2       14.350500000000       4.602925021114      31.110000000000
      2441    1       17.539500000000       0.920585004223      35.646875000000
      2442    1       15.945000000000       3.682340016891      35.646875000000
      2443    1       15.945000000000       1.841170008446      33.054375000000
      2444    1       17.539500000000       4.602925021114      33.054375000000
      2445    2       17.539500000000       0.920585004223      33.702500000000
      2446    2       15.945000000000       3.682340016891      33.702500000000
      2447    2       15.945000000000       1.841170008446      31.110000000000
      2448    2       17.539500000000       4.602925021114      31.110000000000
      2449    1       20.728500000000       0.920585004223      35.646875000000
      2450    1       19.134000000000       3.682340016891      35.646875000000
      2451    1       19.134000000000       1.841170008446      33.054375000000
      2452    1       20.728500000000       4.602925021114      33.054375000000
      2453    2       20.728500000000       0.920585004223      33.702500000000
      2454    2       19.134000000000       3.682340016891      33.702500000000
      2455    2       19.134000000000       1.841170008446      31.110000000000
      2456    2       20.728500000000       4.602925021114      31.110000000000
      2457    1       23.917500000000       0.920585004223      35.646875000000
      2458    1       22.323000000000       3.682340016891      35.646875000000
      2459    1       22.323000000000       1.841170008446      33.054375000000
      2460    1       23.917500000000       4.602925021114      33.054375000000
      2461    2       23.917500000000       0.920585004223      33.702500000000
      2462    2       22.323000000000       3.682340016891      33.702500000000
      2463    2       22.323000000000       1.841170008446      31.110000000000
      2464    2       23.917500000000       4.602925021114      31.110000000000
      2465    1       27.106500000000       0.920585004223      35.646875000000
      2466    1       25.512000000000       3.682340016891      35.646875000000
      2467    1       25.512000000000       1.841170008446      33.054375000000
      2468    1       27.106500000000       4.602925021114      33.054375000000
      2469    2       27.106500000000       0.920585004223      33.702500000000
      2470    2       25.512000000000       3.682340016891      33.702500000000
      2471    2       25.512000000000       1.841170008446      31.110000000000
      2472    2       27.106500000000       4.602925021114      31.110000000000
      2473    1       30.295500000000       0.920585004223      35.646875000000
      2474    1       28.701000000000       3.682340016891      35.646875000000
      2475    1       28.701000000000       1.841170008446      33.054375000000
      2476    1       30.295500000000       4.602925021114      33.054375000000
      2477    2       30.295500000000       0.920585004223      33.702500000000
      2478    2       28.701000000000       3.682340016891      33.702500000000
      2479    2       28.701000000000       1.841170008446      31.110000000000
      2480    2       30.295500000000       4.602925021114      31.110000000000
      2481    1        1.594500000000       6.444095029560      35.646875000000
      2482    1        0.000000000000       9.205850042229      35.646875000000
      2483    1        0.000000000000       7.364680033783      33.054375000000
      2484    1        1.594500000000      10.126435046451      33.054375000000
      2485    2        1.594500000000       6.444095029560      33.702500000000
      2486    2        0.000000000000       9.205850042229      33.702500000000
      2487    2        0.000000000000       7.364680033783      31.110000000000
      2488    2        1.594500000000      10.126435046451      31.110000000000
      2489    1        4.783500000000       6.444095029560      35.646875000000
      2490    1        3.189000000000       9.205850042229      35.646875000000
      2491    1        3.189000000000       7.364680033783      33.054375000000
      2492    1        4.783500000000      10.126435046451      33.054375000000
      2493    2        4.783500000000       6.444095029560      33.702500000000
      2494    2        3.189000000000       9.205850042229      33.702500000000
      2495    2        3.189000000000       7.364680033783      31.110000000000
      2496    2        4.783500000000      10.126435046451      31.110000000000
      2497    1        7.972500000000       6.444095029560      35.646875000000
      2498    1        6.378000000000       9.205850042229      35.646875000000
      2499    1        6.378000000000       7.364680033783      33.054375000000
      2500    1        7.972500000000      10.126435046451      33.054375000000
      2501    2        7.972500000000       6.444095029560      33.702500000000
      2502    2        6.378000000000       9.205850042229      33.702500000000
      2503    2        6.378000000000       7.364680033783      31.110000000000
      2504    2        7.972500000000      10.126435046451      31.110000000000
      2505    1       11.161500000000       6.444095029560      35.646875000000
      2506    1        9.567000000000       9.205850042229      35.646875000000
      2507    1        9.567000000000       7.364680033783      33.054375000000
      2508    1       11.161500000000      10.126435046451      33.054375000000
      2509    2       11.161500000000       6.444095029560      33.702500000000
      2510    2        9.567000000000       9.205850042229      33.702500000000
      2511    2        9.567000000000       7.364680033783      31.110000000000
      2512    2       11.161500000000      10.126435046451      31.110000000000
      2513    1       14.350500000000       6.444095029560      35.646875000000
      2514    1       12.756000000000       9.205850042229      35.646875000000
      2515    1       12.756000000000       7.364680033783      33.054375000000
      2516    1       14.350500000000      10.126435046451      33.054375000000
      2517    2       14.350500000000       6.444095029560      33.702500000000
      2518    2       12.756000000000       9.205850042229      33.702500000000
      2519    2       12.756000000000       7.364680033783      31.110000000000
      2520    2       14.350500000000      10.126435046451      31.110000000000
      2521    1       17.539500000000       6.444095029560      35.646875000000
      2522    1       15.945000000000       9.205850042229      35.646875000000
      2523    1       15.945000000000       7.364680033783      33.054375000000
      2524    1       17.539500000000      10.126435046451      33.054375000000
      2525    2       17.539500000000       6.444095029560      33.702500000000
      2526    2       15.945000000000       9.205850042229      33.702500000000
      2527    2       15.945000000000       7.364680033783      31.110000000000
      2528    2       17.539500000000      10.126435046451      31.110000000000
      2529    1       20.728500000000       6.444095029560      35.646875000000
      2530    1       19.134000000000       9.205850042229      35.646875000000
      2531    1       19.134000000000       7.364680033783      33.054375000000
      2532    1       20.728500000000      10.126435046451      33.054375000000
      2533    2       20.728500000000       6.444095029560      33.702500000000
      2534    2       19.134000000000       9.205850042229      33.702500000000
      2535    2       19.134000000000       7.364680033783      31.110000000000
      2536    2       20.728500000000      10.126435046451      31.110000000000
      2537    1       23.917500000000       6.444095029560      35.646875000000
      2538    1       22.323000000000       9.205850042229      35.646875000000
      2539    1       22.323000000000       7.364680033783      33.054375000000
      2540    1       23.917500000000      10.126435046451      33.054375000000
      2541    2       23.917500000000       6.444095029560      33.702500000000
      2542    2       22.323000000000       9.205850042229      33.702500000000
      2543    2       22.323000000000       7.364680033783      31.110000000000
      2544    2       23.917500000000      10.126435046451      31.110000000000
      2545    1       27.106500000000       6.444095029560      35.646875000000
      2546    1       25.512000000000       9.205850042229      35.646875000000
      2547    1       25.512000000000       7.364680033783      33.054375000000
      2548    1       27.106500000000      10.126435046451      33.054375000000
      2549    2       27.106500000000       6.444095029560      33.702500000000
      2550    2       25.512000000000       9.205850042229      33.702500000000
      2551    2       25.512000000000       7.364680033783      31.110000000000
      2552    2       27.106500000000      10.126435046451      31.110000000000
      2553    1       30.295500000000       6.444095029560      35.646875000000
      2554    1       28.701000000000       9.205850042229      35.646875000000
      2555    1       28.701000000000       7.364680033783      33.054375000000
      2556    1       30.295500000000      10.126435046451      33.054375000000
      2557    2       30.295500000000       6.444095029560      33.702500000000
      2558    2       28.701000000000       9.205850042229      33.702500000000
      2559    2       28.701000000000       7.364680033783      31.110000000000
      2560    2       30.295500000000      10.126435046451      31.110000000000
      2561    1        1.594500000000      11.967605054897      35.646875000000
      2562    1        0.000000000000      14.729360067566      35.646875000000
      2563    1        0.000000000000      12.888190059120      33.054375000000
      2564    1        1.594500000000      15.649945071789      33.054375000000
      2565    2        1.594500000000      11.967605054897      33.702500000000
      2566    2        0.000000000000      14.729360067566      33.702500000000
      2567    2        0.000000000000      12.888190059120      31.110000000000
      2568    2        1.594500000000      15.649945071789      31.110000000000
      2569    1        4.783500000000      11.967605054897      35.646875000000
      2570    1        3.189000000000      14.729360067566      35.646875000000
      2571    1        3.189000000000      12.888190059120      33.054375000000
      2572    1        4.783500000000      15.649945071789      33.054375000000
      2573    2        4.783500000000      11.967605054897      33.702500000000
      2574    2        3.189000000000      14.729360067566      33.702500000000
      2575    2        3.189000000000      12.888190059120      31.110000000000
      2576    2        4.783500000000      15.649945071789      31.110000000000
      2577    1        7.972500000000      11.967605054897      35.646875000000
      2578    1        6.378000000000      14.729360067566      35.646875000000
      2579    1        6.378000000000      12.888190059120      33.054375000000
      2580    1        7.972500000000      15.649945071789      33.054375000000
      2581    2        7.972500000000      11.967605054897      33.702500000000
      2582    2        6.378000000000      14.729360067566      33.702500000000
      2583    2        6.378000000000      12.888190059120      31.110000000000
      2584    2        7.972500000000      15.649945071789      31.110000000000
      2585    1       11.161500000000      11.967605054897      35.646875000000
      2586    1        9.567000000000      14.729360067566      35.646875000000
      2587    1        9.567000000000      12.888190059120      33.054375000000
      2588    1       11.161500000000      15.649945071789      33.054375000000
      2589    2       11.161500000000      11.967605054897      33.702500000000
      2590    2        9.567000000000      14.729360067566      33.702500000000
      2591    2        9.567000000000      12.888190059120      31.110000000000
      2592    2       11.161500000000      15.649945071789      31.110000000000
      2593    1       14.350500000000      11.967605054897      35.646875000000
      2594    1       12.756000000000      14.729360067566      35.646875000000
      2595    1       12.756000000000      12.888190059120      33.054375000000
      2596    1       14.350500000000      15.649945071789      33.054375000000
      2597    2       14.350500000000      11.967605054897      33.702500000000
      2598    2       12.756000000000      14.729360067566      33.702500000000
      2599    2       12.756000000000      12.888190059120      31.110000000000
      2600    2       14.350500000000      15.649945071789      31.110000000000
      2601    1       17.539500000000      11.967605054897      35.646875000000
      2602    1       15.945000000000      14.729360067566      35.646875000000
      2603    1       15.945000000000      12.888190059120      33.054375000000
      2604    1       17.539500000000      15.649945071789      33.054375000000
      2605    2       17.539500000000      11.967605054897      33.702500000000
      2606    2       15.945000000000      14.729360067566      33.702500000000
      2607    2       15.945000000000      12.888190059120      31.110000000000
      2608    2       17.539500000000      15.649945071789      31.110000000000
      2609    1       20.728500000000      11.967605054897      35.646875000000
      2610    1       19.134000000000      14.729360067566      35.646875000000
      2611    1       19.134000000000      12.888190059120      33.054375000000
      2612    1       20.728500000000      15.649945071789      33.054375000000
      2613    2       20.728500000000      11.967605054897      33.702500000000
      2614    2       19.134000000000      14.729360067566      33.702500000000
      2615    2       19.134000000000      12.888190059120      31.110000000000
      2616    2       20.728500000000      15.649945071789      31.110000000000
      2617    1       23.917500000000      11.967605054897      35.646875000000
      2618    1       22.323000000000      14.729360067566      35.646875000000
      2619    1       22.323000000000      12.888190059120      33.054375000000
      2620    1       23.917500000000      15.649945071789      33.054375000000
      2621    2       23.917500000000      11.967605054897      33.702500000000
      2622    2       22.323000000000      14.729360067566      33.702500000000
      2623    2       22.323000000000      12.888190059120      31.110000000000
      2624    2       23.917500000000      15.649945071789      31.110000000000
      2625    1       27.106500000000      11.967605054897      35.646875000000
      2626    1       25.512000000000      14.729360067566      35.646875000000
      2627    1       25.512000000000      12.888190059120      33.054375000000
      2628    1       27.106500000000      15.649945071789      33.054375000000
      2629    2       27.106500000000      11.967605054897      33.702500000000
      2630    2       25.512000000000      14.729360067566      33.702500000000
      2631    2       25.512000000000      12.888190059120      31.110000000000
      2632    2       27.106500000000      15.649945071789      31.110000000000
      2633    1       30.295500000000      11.967605054897      35.646875000000
      2634    1       28.701000000000      14.729360067566      35.646875000000
      2635    1       28.701000000000      12.888190059120      33.054375000000
      2636    1       30.295500000000      15.649945071789      33.054375000000
      2637    2       30.295500000000      11.967605054897      33.702500000000
      2638    2       28.701000000000      14.729360067566      33.702500000000
      2639    2       28.701000000000      12.888190059120      31.110000000000
      2640    2       30.295500000000      15.649945071789      31.110000000000
      2641    1        1.594500000000      17.491115080234      35.646875000000
      2642    1        0.000000000000      20.252870092903      35.646875000000
      2643    1        0.000000000000      18.411700084457      33.054375000000
      2644    1        1.594500000000      21.173455097126      33.054375000000
      2645    2        1.594500000000      17.491115080234      33.702500000000
      2646    2        0.000000000000      20.252870092903      33.702500000000
      2647    2        0.000000000000      18.411700084457      31.110000000000
      2648    2        1.594500000000      21.173455097126      31.110000000000
      2649    1        4.783500000000      17.491115080234      35.646875000000
      2650    1        3.189000000000      20.252870092903      35.646875000000
      2651    1        3.189000000000      18.411700084457      33.054375000000
      2652    1        4.783500000000      21.173455097126      33.054375000000
      2653    2        4.783500000000      17.491115080234      33.702500000000
      2654    2        3.189000000000      20.252870092903      33.702500000000
      2655    2        3.189000000000      18.411700084457      31.110000000000
      2656    2        4.783500000000      21.173455097126      31.110000000000
      2657    1        7.972500000000      17.491115080234      35.646875000000
      2658    1        6.378000000000      20.252870092903      35.646875000000
      2659    1        6.378000000000      18.411700084457      33.054375000000
      2660    1        7.972500000000      21.173455097126      33.054375000000
      2661    2        7.972500000000      17.491115080234      33.702500000000
      2662    2        6.378000000000      20.252870092903      33.702500000000
      2663    2        6.378000000000      18.411700084457      31.110000000000
      2664    2        7.972500000000      21.173455097126      31.110000000000
      2665    1       11.161500000000      17.491115080234      35.646875000000
      2666    1        9.567000000000      20.252870092903      35.646875000000
      2667    1        9.567000000000      18.411700084457      33.054375000000
      2668    1       11.161500000000      21.173455097126      33.054375000000
      2669    2       11.161500000000      17.491115080234      33.702500000000
      2670    2        9.567000000000      20.252870092903      33.702500000000
      2671    2        9.567000000000      18.411700084457      31.110000000000
      2672    2       11.161500000000      21.173455097126      31.110000000000
      2673    1       14.350500000000      17.491115080234      35.646875000000
      2674    1       12.756000000000      20.252870092903      35.646875000000
      2675    1       12.756000000000      18.411700084457      33.054375000000
      2676    1       14.350500000000      21.173455097126      33.054375000000
      2677    2       14.350500000000      17.491115080234      33.702500000000
      2678    2       12.756000000000      20.252870092903      33.702500000000
      2679    2       12.756000000000      18.411700084457      31.110000000000
      2680    2       14.350500000000      21.173455097126      31.110000000000
      2681    1       17.539500000000      17.491115080234      35.646875000000
      2682    1       15.945000000000      20.252870092903      35.646875000000
      2683    1       15.945000000000      18.411700084457      33.054375000000
      2684    1       17.539500000000      21.173455097126      33.054375000000
      2685    2       17.539500000000      17.491115080234      33.702500000000
      2686    2       15.945000000000      20.252870092903      33.702500000000
      2687    2       15.945000000000      18.411700084457      31.110000000000
      2688    2       17.539500000000      21.173455097126      31.110000000000
      2689    1       20.728500000000      17.491115080234      35.646875000000
      2690    1       19.134000000000      20.252870092903      35.646875000000
      2691    1       19.134000000000      18.411700084457      33.054375000000
      2692    1       20.728500000000      21.173455097126      33.054375000000
      2693    2       20.728500000000      17.491115080234      33.702500000000
      2694    2       19.134000000000      20.252870092903      33.702500000000
      2695    2       19.134000000000      18.411700084457      31.110000000000
      2696    2       20.728500000000      21.173455097126      31.110000000000
      2697    1       23.917500000000      17.491115080234      35.646875000000
      2698    1       22.323000000000      20.252870092903      35.646875000000
      2699    1       22.323000000000      18.411700084457      33.054375000000
      2700    1       23.917500000000      21.173455097126      33.054375000000
      2701    2       23.917500000000      17.491115080234      33.702500000000
      2702    2       22.323000000000      20.252870092903      33.702500000000
      2703    2       22.323000000000      18.411700084457      31.110000000000
      2704    2       23.917500000000      21.173455097126      31.110000000000
      2705    1       27.106500000000      17.491115080234      35.646875000000
      2706    1       25.512000000000      20.252870092903      35.646875000000
      2707    1       25.512000000000      18.411700084457      33.054375000000
      2708    1       27.106500000000      21.173455097126      33.054375000000
      2709    2       27.106500000000      17.491115080234      33.702500000000
      2710    2       25.512000000000      20.252870092903      33.702500000000
      2711    2       25.512000000000      18.411700084457      31.110000000000
      2712    2       27.106500000000      21.173455097126      31.110000000000
      2713    1       30.295500000000      17.491115080234      35.646875000000
      2714    1       28.701000000000      20.252870092903      35.646875000000
      2715    1       28.701000000000      18.411700084457      33.054375000000
      2716    1       30.295500000000      21.173455097126      33.054375000000
      2717    2       30.295500000000      17.491115080234      33.702500000000
      2718    2       28.701000000000      20.252870092903      33.702500000000
      2719    2       28.701000000000      18.411700084457      31.110000000000
      2720    2       30.295500000000      21.173455097126      31.110000000000
      2721    1        1.594500000000      23.014625105571      35.646875000000
      2722    1        0.000000000000      25.776380118240      35.646875000000
      2723    1        0.000000000000      23.935210109794      33.054375000000
      2724    1        1.594500000000      26.696965122463      33.054375000000
      2725    2        1.594500000000      23.014625105571      33.702500000000
      2726    2        0.000000000000      25.776380118240      33.702500000000
      2727    2        0.000000000000      23.935210109794      31.110000000000
      2728    2        1.594500000000      26.696965122463      31.110000000000
      2729    1        4.783500000000      23.014625105571      35.646875000000
      2730    1        3.189000000000      25.776380118240      35.646875000000
      2731    1        3.189000000000      23.935210109794      33.054375000000
      2732    1        4.783500000000      26.696965122463      33.054375000000
      2733    2        4.783500000000      23.014625105571      33.702500000000
      2734    2        3.189000000000      25.776380118240      33.702500000000
      2735    2        3.189000000000      23.935210109794      31.110000000000
      2736    2        4.783500000000      26.696965122463      31.110000000000
      2737    1        7.972500000000      23.014625105571      35.646875000000
      2738    1        6.378000000000      25.776380118240      35.646875000000
      2739    1        6.378000000000      23.935210109794      33.054375000000
      2740    1        7.972500000000      26.696965122463      33.054375000000
      2741    2        7.972500000000      23.014625105571      33.702500000000
      2742    2        6.378000000000      25.776380118240      33.702500000000
      2743    2        6.378000000000      23.935210109794      31.110000000000
      2744    2        7.972500000000      26.696965122463      31.110000000000
      2745    1       11.161500000000      23.014625105571      35.646875000000
      2746    1        9.567000000000      25.776380118240      35.646875000000
      2747    1        9.567000000000      23.935210109794      33.054375000000
      2748    1       11.161500000000      26.696965122463      33.054375000000
      2749    2       11.161500000000      23.014625105571      33.702500000000
      2750    2        9.567000000000      25.776380118240      33.702500000000
      2751    2        9.567000000000      23.935210109794      31.110000000000
      2752    2       11.161500000000      26.696965122463      31.110000000000
      2753    1       14.350500000000      23.014625105571      35.646875000000
      2754    1       12.756000000000      25.776380118240      35.646875000000
      2755    1       12.756000000000      23.935210109794      33.054375000000
      2756    1       14.350500000000      26.696965122463      33.054375000000
      2757    2       14.350500000000      23.014625105571      33.702500000000
      2758    2       12.756000000000      25.776380118240      33.702500000000
      2759    2       12.756000000000      23.935210109794      31.110000000000
      2760    2       14.350500000000      26.696965122463      31.110000000000
      2761    1       17.539500000000      23.014625105571      35.646875000000
      2762    1       15.945000000000      25.776380118240      35.646875000000
      2763    1       15.945000000000      23.935210109794      33.054375000000
      2764    1       17.539500000000      26.696965122463      33.054375000000
      2765    2       17.539500000000      23.014625105571      33.702500000000
      2766    2       15.945000000000      25.776380118240      33.702500000000
      2767    2       15.945000000000      23.935210109794      31.110000000000
      2768    2       17.539500000000      26.696965122463      31.110000000000
      2769    1       20.728500000000      23.014625105571      35.646875000000
      2770    1       19.134000000000      25.776380118240      35.646875000000
      2771    1       19.134000000000      23.935210109794      33.054375000000
      2772    1       20.728500000000      26.696965122463      33.054375000000
      2773    2       20.728500000000      23.014625105571      33.702500000000
      2774    2       19.134000000000      25.776380118240      33.702500000000
      2775    2       19.134000000000      23.935210109794      31.110000000000
      2776    2       20.728500000000      26.696965122463      31.110000000000
      2777    1       23.917500000000      23.014625105571      35.646875000000
      2778    1       22.323000000000      25.776380118240      35.646875000000
      2779    1       22.323000000000      23.935210109794      33.054375000000
      2780    1       23.917500000000      26.696965122463      33.054375000000
      2781    2       23.917500000000      23.014625105571      33.702500000000
      2782    2       22.323000000000      25.776380118240      33.702500000000
      2783    2       22.323000000000      23.935210109794      31.110000000000
      2784    2       23.917500000000      26.696965122463      31.110000000000
      2785    1       27.106500000000      23.014625105571      35.646875000000
      2786    1       25.512000000000      25.776380118240      35.646875000000
      2787    1       25.512000000000      23.935210109794      33.054375000000
      2788    1       27.106500000000      26.696965122463      33.054375000000
      2789    2       27.106500000000      23.014625105571      33.702500000000
      2790    2       25.512000000000      25.776380118240      33.702500000000
      2791    2       25.512000000000      23.935210109794      31.110000000000
      2792    2       27.106500000000      26.696965122463      31.110000000000
      2793    1       30.295500000000      23.014625105571      35.646875000000
      2794    1       28.701000000000      25.776380118240      35.646875000000
      2795    1       28.701000000000      23.935210109794      33.054375000000
      2796    1       30.295500000000      26.696965122463      33.054375000000
      2797    2       30.295500000000      23.014625105571      33.702500000000
      2798    2       28.701000000000      25.776380118240      33.702500000000
      2799    2       28.701000000000      23.935210109794      31.110000000000
      2800    2       30.295500000000      26.696965122463      31.110000000000
      2801    1        1.594500000000       0.920585004223      40.831875000000
      2802    1        0.000000000000       3.682340016891      40.831875000000
      2803    1        0.000000000000       1.841170008446      38.239375000000
      2804    1        1.594500000000       4.602925021114      38.239375000000
      2805    2        1.594500000000       0.920585004223      38.887500000000
      2806    2        0.000000000000       3.682340016891      38.887500000000
      2807    2        0.000000000000       1.841170008446      36.295000000000
      2808    2        1.594500000000       4.602925021114      36.295000000000
      2809    1        4.783500000000       0.920585004223      40.831875000000
      2810    1        3.189000000000       3.682340016891      40.831875000000
      2811    1        3.189000000000       1.841170008446      38.239375000000
      2812    1        4.783500000000       4.602925021114      38.239375000000
      2813    2        4.783500000000       0.920585004223      38.887500000000
      2814    2        3.189000000000       3.682340016891      38.887500000000
      2815    2        3.189000000000       1.841170008446      36.295000000000
      2816    2        4.783500000000       4.602925021114      36.295000000000
      2817    1        7.972500000000       0.920585004223      40.831875000000
      2818    1        6.378000000000       3.682340016891      40.831875000000
      2819    1        6.378000000000       1.841170008446      38.239375000000
      2820    1        7.972500000000       4.602925021114      38.239375000000
      2821    2        7.972500000000       0.920585004223      38.887500000000
      2822    2        6.378000000000       3.682340016891      38.887500000000
      2823    2        6.378000000000       1.841170008446      36.295000000000
      2824    2        7.972500000000       4.602925021114      36.295000000000
      2825    1       11.161500000000       0.920585004223      40.831875000000
      2826    1        9.567000000000       3.682340016891      40.831875000000
      2827    1        9.567000000000       1.841170008446      38.239375000000
      2828    1       11.161500000000       4.602925021114      38.239375000000
      2829    2       11.161500000000       0.920585004223      38.887500000000
      2830    2        9.567000000000       3.682340016891      38.887500000000
      2831    2        9.567000000000       1.841170008446      36.295000000000
      2832    2       11.161500000000       4.602925021114      36.295000000000
      2833    1       14.350500000000       0.920585004223      40.831875000000
      2834    1       12.756000000000       3.682340016891      40.831875000000
      2835    1       12.756000000000       1.841170008446      38.239375000000
      2836    1       14.350500000000       4.602925021114      38.239375000000
      2837    2       14.350500000000       0.920585004223      38.887500000000
      2838    2       12.756000000000       3.682340016891      38.887500000000
      2839    2       12.756000000000       1.841170008446      36.295000000000
      2840    2       14.350500000000       4.602925021114      36.295000000000
      2841    1       17.539500000000       0.920585004223      40.831875000000
      2842    1       15.945000000000       3.682340016891      40.831875000000
      2843    1       15.945000000000       1.841170008446      38.239375000000
      2844    1       17.539500000000       4.602925021114      38.239375000000
      2845    2       17.539500000000       0.920585004223      38.887500000000
      2846    2       15.945000000000       3.682340016891      38.887500000000
      2847    2       15.945000000000       1.841170008446      36.295000000000
      2848    2       17.539500000000       4.602925021114      36.295000000000
      2849    1       20.728500000000       0.920585004223      40.831875000000
      2850    1       19.134000000000       3.682340016891      40.831875000000
      2851    1       19.134000000000       1.841170008446      38.239375000000
      2852    1       20.728500000000       4.602925021114      38.239375000000
      2853    2       20.728500000000       0.920585004223      38.887500000000
      2854    2       19.134000000000       3.682340016891      38.887500000000
      2855    2       19.134000000000       1.841170008446      36.295000000000
      2856    2       20.728500000000       4.602925021114      36.295000000000
      2857    1       23.917500000000       0.920585004223      40.831875000000
      2858    1       22.323000000000       3.682340016891      40.831875000000
      2859    1       22.323000000000       1.841170008446      38.239375000000
      2860    1       23.917500000000       4.602925021114      38.239375000000
      2861    2       23.917500000000       0.920585004223      38.887500000000
      2862    2       22.323000000000       3.682340016891      38.887500000000
      2863    2       22.323000000000       1.841170008446      36.295000000000
      2864    2       23.917500000000       4.602925021114      36.295000000000
      2865    1       27.106500000000       0.920585004223      40.831875000000
      2866    1       25.512000000000       3.682340016891      40.831875000000
      2867    1       25.512000000000       1.841170008446      38.239375000000
      2868    1       27.106500000000       4.602925021114      38.239375000000
      2869    2       27.106500000000       0.920585004223      38.887500000000
      2870    2       25.512000000000       3.682340016891      38.887500000000
      2871    2       25.512000000000       1.841170008446      36.295000000000
      2872    2       27.106500000000       4.602925021114      36.295000000000
      2873    1       30.295500000000       0.920585004223      40.831875000000
      2874    1       28.701000000000       3.682340016891      40.831875000000
      2875    1       28.701000000000       1.841170008446      38.239375000000
      2876    1       30.295500000000       4.602925021114      38.239375000000
      2877    2       30.295500000000       0.920585004223      38.887500000000
      2878    2       28.701000000000       3.682340016891      38.887500000000
      2879    2       28.701000000000       1.841170008446      36.295000000000
      2880    2       30.295500000000       4.602925021114      36.295000000000
      2881    1        1.594500000000       6.444095029560      40.831875000000
      2882    1        0.000000000000       9.205850042229      40.831875000000
      2883    1        0.000000000000       7.364680033783      38.239375000000
      2884    1        1.594500000000      10.126435046451      38.239375000000
      2885    2        1.594500000000       6.444095029560      38.887500000000
      2886    2        0.000000000000       9.205850042229      38.887500000000
      2887    2        0.000000000000       7.364680033783      36.295000000000
      2888    2        1.594500000000      10.126435046451      36.295000000000
      2889    1        4.783500000000       6.444095029560      40.831875000000
      2890    1        3.189000000000       9.205850042229      40.831875000000
      2891    1        3.189000000000       7.364680033783      38.239375000000
      2892    1        4.783500000000      10.126435046451      38.239375000000
      2893    2        4.783500000000       6.444095029560      38.887500000000
      2894    2        3.189000000000       9.205850042229      38.887500000000
      2895    2        3.189000000000       7.364680033783      36.295000000000
      2896    2        4.783500000000      10.126435046451      36.295000000000
      2897    1        7.972500000000       6.444095029560      40.831875000000
      2898    1        6.378000000000       9.205850042229      40.831875000000
      2899    1        6.378000000000       7.364680033783      38.239375000000
      2900    1        7.972500000000      10.126435046451      38.239375000000
      2901    2        7.972500000000       6.444095029560      38.887500000000
      2902    2        6.378000000000       9.205850042229      38.887500000000
      2903    2        6.378000000000       7.364680033783      36.295000000000
      2904    2        7.972500000000      10.126435046451      36.295000000000
      2905    1       11.161500000000       6.444095029560      40.831875000000
      2906    1        9.567000000000       9.205850042229      40.831875000000
      2907    1        9.567000000000       7.364680033783      38.239375000000
      2908    1       11.161500000000      10.126435046451      38.239375000000
      2909    2       11.161500000000       6.444095029560      38.887500000000
      2910    2        9.567000000000       9.205850042229      38.887500000000
      2911    2        9.567000000000       7.364680033783      36.295000000000
      2912    2       11.161500000000      10.126435046451      36.295000000000
      2913    1       14.350500000000       6.444095029560      40.831875000000
      2914    1       12.756000000000       9.205850042229      40.831875000000
      2915    1       12.756000000000       7.364680033783      38.239375000000
      2916    1       14.350500000000      10.126435046451      38.239375000000
      2917    2       14.350500000000       6.444095029560      38.887500000000
      2918    2       12.756000000000       9.205850042229      38.887500000000
      2919    2       12.756000000000       7.364680033783      36.295000000000
      2920    2       14.350500000000      10.126435046451      36.295000000000
      2921    1       17.539500000000       6.444095029560      40.831875000000
      2922    1       15.945000000000       9.205850042229      40.831875000000
      2923    1       15.945000000000       7.364680033783      38.239375000000
      2924    1       17.539500000000      10.126435046451      38.239375000000
      2925    2       17.539500000000       6.444095029560      38.887500000000
      2926    2       15.945000000000       9.205850042229      38.887500000000
      2927    2       15.945000000000       7.364680033783      36.295000000000
      2928    2       17.539500000000      10.126435046451      36.295000000000
      2929    1       20.728500000000       6.444095029560      40.831875000000
      2930    1       19.134000000000       9.205850042229      40.831875000000
      2931    1       19.134000000000       7.364680033783      38.239375000000
      2932    1       20.728500000000      10.126435046451      38.239375000000
      2933    2       20.728500000000       6.444095029560      38.887500000000
      2934    2       19.134000000000       9.205850042229      38.887500000000
      2935    2       19.134000000000       7.364680033783      36.295000000000
      2936    2       20.728500000000      10.126435046451      36.295000000000
      2937    1       23.917500000000       6.444095029560      40.831875000000
      2938    1       22.323000000000       9.205850042229      40.831875000000
      2939    1       22.323000000000       7.364680033783      38.239375000000
      2940    1       23.917500000000      10.126435046451      38.239375000000
      2941    2       23.917500000000       6.444095029560      38.887500000000
      2942    2       22.323000000000       9.205850042229      38.887500000000
      2943    2       22.323000000000       7.364680033783      36.295000000000
      2944    2       23.917500000000      10.126435046451      36.295000000000
      2945    1       27.106500000000       6.444095029560      40.831875000000
      2946    1       25.512000000000       9.205850042229      40.831875000000
      2947    1       25.512000000000       7.364680033783      38.239375000000
      2948    1       27.106500000000      10.126435046451      38.239375000000
      2949    2       27.106500000000       6.444095029560      38.887500000000
      2950    2       25.512000000000       9.205850042229      38.887500000000
      2951    2       25.512000000000       7.364680033783      36.295000000000
      2952    2       27.106500000000      10.126435046451      36.295000000000
      2953    1       30.295500000000       6.444095029560      40.831875000000
      2954    1       28.701000000000       9.205850042229      40.831875000000
      2955    1       28.701000000000       7.364680033783      38.239375000000
      2956    1       30.295500000000      10.126435046451      38.239375000000
      2957    2       30.295500000000       6.444095029560      38.887500000000
      2958    2       28.701000000000       9.205850042229      38.887500000000
      2959    2       28.701000000000       7.364680033783      36.295000000000
      2960    2       30.295500000000      10.126435046451      36.295000000000
      2961    1        1.594500000000      11.967605054897      40.831875000000
      2962    1        0.000000000000      14.729360067566      40.831875000000
      2963    1        0.000000000000      12.888190059120      38.239375000000
      2964    1        1.594500000000      15.649945071789      38.239375000000
      2965    2        1.594500000000      11.967605054897      38.887500000000
      2966    2        0.000000000000      14.729360067566      38.887500000000
      2967    2        0.000000000000      12.888190059120      36.295000000000
      2968    2        1.594500000000      15.649945071789      36.295000000000
      2969    1        4.783500000000      11.967605054897      40.831875000000
      2970    1        3.189000000000      14.729360067566      40.831875000000
      2971    1        3.189000000000      12.888190059120      38.239375000000
      2972    1        4.783500000000      15.649945071789      38.239375000000
      2973    2        4.783500000000      11.967605054897      38.887500000000
      2974    2        3.189000000000      14.729360067566      38.887500000000
      2975    2        3.189000000000      12.888190059120      36.295000000000
      2976    2        4.783500000000      15.649945071789      36.295000000000
      2977    1        7.972500000000      11.967605054897      40.831875000000
      2978    1        6.378000000000      14.729360067566      40.831875000000
      2979    1        6.378000000000      12.888190059120      38.239375000000
      2980    1        7.972500000000      15.649945071789      38.239375000000
      2981    2        7.972500000000      11.967605054897      38.887500000000
      2982    2        6.378000000000      14.729360067566      38.887500000000
      2983    2        6.378000000000      12.888190059120      36.295000000000
      2984    2        7.972500000000      15.649945071789      36.295000000000
      2985    1       11.161500000000      11.967605054897      40.831875000000
      2986    1        9.567000000000      14.729360067566      40.831875000000
      2987    1        9.567000000000      12.888190059120      38.239375000000
      2988    1       11.161500000000      15.649945071789      38.239375000000
      2989    2       11.161500000000      11.967605054897      38.887500000000
      2990    2        9.567000000000      14.729360067566      38.887500000000
      2991    2        9.567000000000      12.888190059120      36.295000000000
      2992    2       11.161500000000      15.649945071789      36.295000000000
      2993    1       14.350500000000      11.967605054897      40.831875000000
      2994    1       12.756000000000      14.729360067566      40.831875000000
      2995    1       12.756000000000      12.888190059120      38.239375000000
      2996    1       14.350500000000      15.649945071789      38.239375000000
      2997    2       14.350500000000      11.967605054897      38.887500000000
      2998    2       12.756000000000      14.729360067566      38.887500000000
      2999    2       12.756000000000      12.888190059120      36.295000000000
      3000    2       14.350500000000      15.649945071789      36.295000000000
      3001    1       17.539500000000      11.967605054897      40.831875000000
      3002    1       15.945000000000      14.729360067566      40.831875000000
      3003    1       15.945000000000      12.888190059120      38.239375000000
      3004    1       17.539500000000      15.649945071789      38.239375000000
      3005    2       17.539500000000      11.967605054897      38.887500000000
      3006    2       15.945000000000      14.729360067566      38.887500000000
      3007    2       15.945000000000      12.888190059120      36.295000000000
      3008    2       17.539500000000      15.649945071789      36.295000000000
      3009    1       20.728500000000      11.967605054897      40.831875000000
      3010    1       19.134000000000      14.729360067566      40.831875000000
      3011    1       19.134000000000      12.888190059120      38.239375000000
      3012    1       20.728500000000      15.649945071789      38.239375000000
      3013    2       20.728500000000      11.967605054897      38.887500000000
      3014    2       19.134000000000      14.729360067566      38.887500000000
      3015    2       19.134000000000      12.888190059120      36.295000000000
      3016    2       20.728500000000      15.649945071789      36.295000000000
      3017    1       23.917500000000      11.967605054897      40.831875000000
      3018    1       22.323000000000      14.729360067566      40.831875000000
      3019    1       22.323000000000      12.888190059120      38.239375000000
      3020    1       23.917500000000      15.649945071789      38.239375000000
      3021    2       23.917500000000      11.967605054897      38.887500000000
      3022    2       22.323000000000      14.729360067566      38.887500000000
      3023    2       22.323000000000      12.888190059120      36.295000000000
      3024    2       23.917500000000      15.649945071789      36.295000000000
      3025    1       27.106500000000      11.967605054897      40.831875000000
      3026    1       25.512000000000      14.729360067566      40.831875000000
      3027    1       25.512000000000      12.888190059120      38.239375000000
      3028    1       27.106500000000      15.649945071789      38.239375000000
      3029    2       27.106500000000      11.967605054897      38.887500000000
      3030    2       25.512000000000      14.729360067566      38.887500000000
      3031    2       25.512000000000      12.888190059120      36.295000000000
      3032    2       27.106500000000      15.649945071789      36.295000000000
      3033    1       30.295500000000      11.967605054897      40.831875000000
      3034    1       28.701000000000      14.729360067566      40.831875000000
      3035    1       28.701000000000      12.888190059120      38.239375000000
      3036    1       30.295500000000      15.649945071789      38.239375000000
      3037    2       30.295500000000      11.967605054897      38.887500000000
      3038    2       28.701000000000      14.729360067566      38.887500000000
      3039    2       28.701000000000      12.888190059120      36.295000000000
      3040    2       30.295500000000      15.649945071789      36.295000000000
      3041    1        1.594500000000      17.491115080234      40.831875000000
      3042    1        0.000000000000      20.252870092903      40.831875000000
      3043    1        0.000000000000      18.411700084457      38.239375000000
      3044    1        1.594500000000      21.173455097126      38.239375000000
      3045    2        1.594500000000      17.491115080234      38.887500000000
      3046    2        0.000000000000      20.252870092903      38.887500000000
      3047    2        0.000000000000      18.411700084457      36.295000000000
      3048    2        1.594500000000      21.173455097126      36.295000000000
      3049    1        4.783500000000      17.491115080234      40.831875000000
      3050    1        3.189000000000      20.252870092903      40.831875000000
      3051    1        3.189000000000      18.411700084457      38.239375000000
      3052    1        4.783500000000      21.173455097126      38.239375000000
      3053    2        4.783500000000      17.491115080234      38.887500000000
      3054    2        3.189000000000      20.252870092903      38.887500000000
      3055    2        3.189000000000      18.411700084457      36.295000000000
      3056    2        4.783500000000      21.173455097126      36.295000000000
      3057    1        7.972500000000      17.491115080234      40.831875000000
      3058    1        6.378000000000      20.252870092903      40.831875000000
      3059    1        6.378000000000      18.411700084457      38.239375000000
      3060    1        7.972500000000      21.173455097126      38.239375000000
      3061    2        7.972500000000      17.491115080234      38.887500000000
      3062    2        6.378000000000      20.252870092903      38.887500000000
      3063    2        6.378000000000      18.411700084457      36.295000000000
      3064    2        7.972500000000      21.173455097126      36.295000000000
      3065    1       11.161500000000      17.491115080234      40.831875000000
      3066    1        9.567000000000      20.252870092903      40.831875000000
      3067    1        9.567000000000      18.411700084457      38.239375000000
      3068    1       11.161500000000      21.173455097126      38.239375000000
      3069    2       11.161500000000      17.491115080234      38.887500000000
      3070    2        9.567000000000      20.252870092903      38.887500000000
      3071    2        9.567000000000      18.411700084457      36.295000000000
      3072    2       11.161500000000      21.173455097126      36.295000000000
      3073    1       14.350500000000      17.491115080234      40.831875000000
      3074    1       12.756000000000      20.252870092903      40.831875000000
      3075    1       12.756000000000      18.411700084457      38.239375000000
      3076    1       14.350500000000      21.173455097126      38.239375000000
      3077    2       14.350500000000      17.491115080234      38.887500000000
      3078    2       12.756000000000      20.252870092903      38.887500000000
      3079    2       12.756000000000      18.411700084457      36.295000000000
      3080    2       14.350500000000      21.173455097126      36.295000000000
      3081    1       17.539500000000      17.491115080234      40.831875000000
      3082    1       15.945000000000      20.252870092903      40.831875000000
      3083    1       15.945000000000      18.411700084457      38.239375000000
      3084    1       17.539500000000      21.173455097126      38.239375000000
      3085    2       17.539500000000      17.491115080234      38.887500000000
      3086    2       15.945000000000      20.252870092903      38.887500000000
      3087    2       15.945000000000      18.411700084457      36.295000000000
      3088    2       17.539500000000      21.173455097126      36.295000000000
      3089    1       20.728500000000      17.491115080234      40.831875000000
      3090    1       19.134000000000      20.252870092903      40.831875000000
      3091    1       19.134000000000      18.411700084457      38.239375000000
      3092    1       20.728500000000      21.173455097126      38.239375000000
      3093    2       20.728500000000      17.491115080234      38.887500000000
      3094    2       19.134000000000      20.252870092903      38.887500000000
      3095    2       19.134000000000      18.411700084457      36.295000000000
      3096    2       20.728500000000      21.173455097126      36.295000000000
      3097    1       23.917500000000      17.491115080234      40.831875000000
      3098    1       22.323000000000      20.252870092903      40.831875000000
      3099    1       22.323000000000      18.411700084457      38.239375000000
      3100    1       23.917500000000      21.173455097126      38.239375000000
      3101    2       23.917500000000      17.491115080234      38.887500000000
      3102    2       22.323000000000      20.252870092903      38.887500000000
      3103    2       22.323000000000      18.411700084457      36.295000000000
      3104    2       23.917500000000      21.173455097126      36.295000000000
      3105    1       27.106500000000      17.491115080234      40.831875000000
      3106    1       25.512000000000      20.252870092903      40.831875000000
      3107    1       25.512000000000      18.411700084457      38.239375000000
      3108    1       27.106500000000      21.173455097126      38.239375000000
      3109    2       27.106500000000      17.491115080234      38.887500000000
      3110    2       25.512000000000      20.252870092903      38.887500000000
      3111    2       25.512000000000      18.411700084457      36.295000000000
      3112    2       27.106500000000      21.173455097126      36.295000000000
      3113    1       30.295500000000      17.491115080234      40.831875000000
      3114    1       28.701000000000      20.252870092903      40.831875000000
      3115    1       28.701000000000      18.411700084457      38.239375000000
      3116    1       30.295500000000      21.173455097126      38.239375000000
      3117    2       30.295500000000      17.491115080234      38.887500000000
      3118    2       28.701000000000      20.252870092903      38.887500000000
      3119    2       28.701000000000      18.411700084457      36.295000000000
      3120    2       30.295500000000      21.173455097126      36.295000000000
      3121    1        1.594500000000      23.014625105571      40.831875000000
      3122    1        0.000000000000      25.776380118240      40.831875000000
      3123    1        0.000000000000      23.935210109794      38.239375000000
      3124    1        1.594500000000      26.696965122463      38.239375000000
      3125    2        1.594500000000      23.014625105571      38.887500000000
      3126    2        0.000000000000      25.776380118240      38.887500000000
      3127    2        0.000000000000      23.935210109794      36.295000000000
      3128    2        1.594500000000      26.696965122463      36.295000000000
      3129    1        4.783500000000      23.014625105571      40.831875000000
      3130    1        3.189000000000      25.776380118240      40.831875000000
      3131    1        3.189000000000      23.935210109794      38.239375000000
      3132    1        4.783500000000      26.696965122463      38.239375000000
      3133    2        4.783500000000      23.014625105571      38.887500000000
      3134    2        3.189000000000      25.776380118240      38.887500000000
      3135    2        3.189000000000      23.935210109794      36.295000000000
      3136    2        4.783500000000      26.696965122463      36.295000000000
      3137    1        7.972500000000      23.014625105571      40.831875000000
      3138    1        6.378000000000      25.776380118240      40.831875000000
      3139    1        6.378000000000      23.935210109794      38.239375000000
      3140    1        7.972500000000      26.696965122463      38.239375000000
      3141    2        7.972500000000      23.014625105571      38.887500000000
      3142    2        6.378000000000      25.776380118240      38.887500000000
      3143    2        6.378000000000      23.935210109794      36.295000000000
      3144    2        7.972500000000      26.696965122463      36.295000000000
      3145    1       11.161500000000      23.014625105571      40.831875000000
      3146    1        9.567000000000      25.776380118240      40.831875000000
      3147    1        9.567000000000      23.935210109794      38.239375000000
      3148    1       11.161500000000      26.696965122463      38.239375000000
      3149    2       11.161500000000      23.014625105571      38.887500000000
      3150    2        9.567000000000      25.776380118240      38.887500000000
      3151    2        9.567000000000      23.935210109794      36.295000000000
      3152    2       11.161500000000      26.696965122463      36.295000000000
      3153    1       14.350500000000      23.014625105571      40.831875000000
      3154    1       12.756000000000      25.776380118240      40.831875000000
      3155    1       12.756000000000      23.935210109794      38.239375000000
      3156    1       14.350500000000      26.696965122463      38.239375000000
      3157    2       14.350500000000      23.014625105571      38.887500000000
      3158    2       12.756000000000      25.776380118240      38.887500000000
      3159    2       12.756000000000      23.935210109794      36.295000000000
      3160    2       14.350500000000      26.696965122463      36.295000000000
      3161    1       17.539500000000      23.014625105571      40.831875000000
      3162    1       15.945000000000      25.776380118240      40.831875000000
      3163    1       15.945000000000      23.935210109794      38.239375000000
      3164    1       17.539500000000      26.696965122463      38.239375000000
      3165    2       17.539500000000      23.014625105571      38.887500000000
      3166    2       15.945000000000      25.776380118240      38.887500000000
      3167    2       15.945000000000      23.935210109794      36.295000000000
      3168    2       17.539500000000      26.696965122463      36.295000000000
      3169    1       20.728500000000      23.014625105571      40.831875000000
      3170    1       19.134000000000      25.776380118240      40.831875000000
      3171    1       19.134000000000      23.935210109794      38.239375000000
      3172    1       20.728500000000      26.696965122463      38.239375000000
      3173    2       20.728500000000      23.014625105571      38.887500000000
      3174    2       19.134000000000      25.776380118240      38.887500000000
      3175    2       19.134000000000      23.935210109794      36.295000000000
      3176    2       20.728500000000      26.696965122463      36.295000000000
      3177    1       23.917500000000      23.014625105571      40.831875000000
      3178    1       22.323000000000      25.776380118240      40.831875000000
      3179    1       22.323000000000      23.935210109794      38.239375000000
      3180    1       23.917500000000      26.696965122463      38.239375000000
      3181    2       23.917500000000      23.014625105571      38.887500000000
      3182    2       22.323000000000      25.776380118240      38.887500000000
      3183    2       22.323000000000      23.935210109794      36.295000000000
      3184    2       23.917500000000      26.696965122463      36.295000000000
      3185    1       27.106500000000      23.014625105571      40.831875000000
      3186    1       25.512000000000      25.776380118240      40.831875000000
      3187    1       25.512000000000      23.935210109794      38.239375000000
      3188    1       27.106500000000      26.696965122463      38.239375000000
      3189    2       27.106500000000      23.014625105571      38.887500000000
      3190    2       25.512000000000      25.776380118240      38.887500000000
      3191    2       25.512000000000      23.935210109794      36.295000000000
      3192    2       27.106500000000      26.696965122463      36.295000000000
      3193    1       30.295500000000      23.014625105571      40.831875000000
      3194    1       28.701000000000      25.776380118240      40.831875000000
      3195    1       28.701000000000      23.935210109794      38.239375000000
      3196    1       30.295500000000      26.696965122463      38.239375000000
      3197    2       30.295500000000      23.014625105571      38.887500000000
      3198    2       28.701000000000      25.776380118240      38.887500000000
      3199    2       28.701000000000      23.935210109794      36.295000000000
      3200    2       30.295500000000      26.696965122463      36.295000000000
      3201    1        1.594500000000       0.920585004223      46.016875000000
      3202    1        0.000000000000       3.682340016891      46.016875000000
      3203    1        0.000000000000       1.841170008446      43.424375000000
      3204    1        1.594500000000       4.602925021114      43.424375000000
      3205    2        1.594500000000       0.920585004223      44.072500000000
      3206    2        0.000000000000       3.682340016891      44.072500000000
      3207    2        0.000000000000       1.841170008446      41.480000000000
      3208    2        1.594500000000       4.602925021114      41.480000000000
      3209    1        4.783500000000       0.920585004223      46.016875000000
      3210    1        3.189000000000       3.682340016891      46.016875000000
      3211    1        3.189000000000       1.841170008446      43.424375000000
      3212    1        4.783500000000       4.602925021114      43.424375000000
      3213    2        4.783500000000       0.920585004223      44.072500000000
      3214    2        3.189000000000       3.682340016891      44.072500000000
      3215    2        3.189000000000       1.841170008446      41.480000000000
      3216    2        4.783500000000       4.602925021114      41.480000000000
      3217    1        7.972500000000       0.920585004223      46.016875000000
      3218    1        6.378000000000       3.682340016891      46.016875000000
      3219    1        6.378000000000       1.841170008446      43.424375000000
      3220    1        7.972500000000       4.602925021114      43.424375000000
      3221    2        7.972500000000       0.920585004223      44.072500000000
      3222    2        6.378000000000       3.682340016891      44.072500000000
      3223    2        6.378000000000       1.841170008446      41.480000000000
      3224    2        7.972500000000       4.602925021114      41.480000000000
      3225    1       11.161500000000       0.920585004223      46.016875000000
      3226    1        9.567000000000       3.682340016891      46.016875000000
      3227    1        9.567000000000       1.841170008446      43.424375000000
      3228    1       11.161500000000       4.602925021114      43.424375000000
      3229    2       11.161500000000       0.920585004223      44.072500000000
      3230    2        9.567000000000       3.682340016891      44.072500000000
      3231    2        9.567000000000       1.841170008446      41.480000000000
      3232    2       11.161500000000       4.602925021114      41.480000000000
      3233    1       14.350500000000       0.920585004223      46.016875000000
      3234    1       12.756000000000       3.682340016891      46.016875000000
      3235    1       12.756000000000       1.841170008446      43.424375000000
      3236    1       14.350500000000       4.602925021114      43.424375000000
      3237    2       14.350500000000       0.920585004223      44.072500000000
      3238    2       12.756000000000       3.682340016891      44.072500000000
      3239    2       12.756000000000       1.841170008446      41.480000000000
      3240    2       14.350500000000       4.602925021114      41.480000000000
      3241    1       17.539500000000       0.920585004223      46.016875000000
      3242    1       15.945000000000       3.682340016891      46.016875000000
      3243    1       15.945000000000       1.841170008446      43.424375000000
      3244    1       17.539500000000       4.602925021114      43.424375000000
      3245    2       17.539500000000       0.920585004223      44.072500000000
      3246    2       15.945000000000       3.682340016891      44.072500000000
      3247    2       15.945000000000       1.841170008446      41.480000000000
      3248    2       17.539500000000       4.602925021114      41.480000000000
      3249    1       20.728500000000       0.920585004223      46.016875000000
      3250    1       19.134000000000       3.682340016891      46.016875000000
      3251    1       19.134000000000       1.841170008446      43.424375000000
      3252    1       20.728500000000       4.602925021114      43.424375000000
      3253    2       20.728500000000       0.920585004223      44.072500000000
      3254    2       19.134000000000       3.682340016891      44.072500000000
      3255    2       19.134000000000       1.841170008446      41.480000000000
      3256    2       20.728500000000       4.602925021114      41.480000000000
      3257    1       23.917500000000       0.920585004223      46.016875000000
      3258    1       22.323000000000       3.682340016891      46.016875000000
      3259    1       22.323000000000       1.841170008446      43.424375000000
      3260    1       23.917500000000       4.602925021114      43.424375000000
      3261    2       23.917500000000       0.920585004223      44.072500000000
      3262    2       22.323000000000       3.682340016891      44.072500000000
      3263    2       22.323000000000       1.841170008446      41.480000000000
      3264    2       23.917500000000       4.602925021114      41.480000000000
      3265    1       27.106500000000       0.920585004223      46.016875000000
      3266    1       25.512000000000       3.682340016891      46.016875000000
      3267    1       25.512000000000       1.841170008446      43.424375000000
      3268    1       27.106500000000       4.602925021114      43.424375000000
      3269    2       27.106500000000       0.920585004223      44.072500000000
      3270    2       25.512000000000       3.682340016891      44.072500000000
      3271    2       25.512000000000       1.841170008446      41.480000000000
      3272    2       27.106500000000       4.602925021114      41.480000000000
      3273    1       30.295500000000       0.920585004223      46.016875000000
      3274    1       28.701000000000       3.682340016891      46.016875000000
      3275    1       28.701000000000       1.841170008446      43.424375000000
      3276    1       30.295500000000       4.602925021114      43.424375000000
      3277    2       30.295500000000       0.920585004223      44.072500000000
      3278    2       28.701000000000       3.682340016891      44.072500000000
      3279    2       28.701000000000       1.841170008446      41.480000000000
      3280    2       30.295500000000       4.602925021114      41.480000000000
      3281    1        1.594500000000       6.444095029560      46.016875000000
      3282    1        0.000000000000       9.205850042229      46.016875000000
      3283    1        0.000000000000       7.364680033783      43.424375000000
      3284    1        1.594500000000      10.126435046451      43.424375000000
      3285    2        1.594500000000       6.444095029560      44.072500000000
      3286    2        0.000000000000       9.205850042229      44.072500000000
      3287    2        0.000000000000       7.364680033783      41.480000000000
      3288    2        1.594500000000      10.126435046451      41.480000000000
      3289    1        4.783500000000       6.444095029560      46.016875000000
      3290    1        3.189000000000       9.205850042229      46.016875000000
      3291    1        3.189000000000       7.364680033783      43.424375000000
      3292    1        4.783500000000      10.126435046451      43.424375000000
      3293    2        4.783500000000       6.444095029560      44.072500000000
      3294    2        3.189000000000       9.205850042229      44.072500000000
      3295    2        3.189000000000       7.364680033783      41.480000000000
      3296    2        4.783500000000      10.126435046451      41.480000000000
      3297    1        7.972500000000       6.444095029560      46.016875000000
      3298    1        6.378000000000       9.205850042229      46.016875000000
      3299    1        6.378000000000       7.364680033783      43.424375000000
      3300    1        7.972500000000      10.126435046451      43.424375000000
      3301    2        7.972500000000       6.444095029560      44.072500000000
      3302    2        6.378000000000       9.205850042229      44.072500000000
      3303    2        6.378000000000       7.364680033783      41.480000000000
      3304    2        7.972500000000      10.126435046451      41.480000000000
      3305    1       11.161500000000       6.444095029560      46.016875000000
      3306    1        9.567000000000       9.205850042229      46.016875000000
      3307    1        9.567000000000       7.364680033783      43.424375000000
      3308    1       11.161500000000      10.126435046451      43.424375000000
      3309    2       11.161500000000       6.444095029560      44.072500000000
      3310    2        9.567000000000       9.205850042229      44.072500000000
      3311    2        9.567000000000       7.364680033783      41.480000000000
      3312    2       11.161500000000      10.126435046451      41.480000000000
      3313    1       14.350500000000       6.444095029560      46.016875000000
      3314    1       12.756000000000       9.205850042229      46.016875000000
      3315    1       12.756000000000       7.364680033783      43.424375000000
      3316    1       14.350500000000      10.126435046451      43.424375000000
      3317    2       14.350500000000       6.444095029560      44.072500000000
      3318    2       12.756000000000       9.205850042229      44.072500000000
      3319    2       12.756000000000       7.364680033783      41.480000000000
      3320    2       14.350500000000      10.126435046451      41.480000000000
      3321    1       17.539500000000       6.444095029560      46.016875000000
      3322    1       15.945000000000       9.205850042229      46.016875000000
      3323    1       15.945000000000       7.364680033783      43.424375000000
      3324    1       17.539500000000      10.126435046451      43.424375000000
      3325    2       17.539500000000       6.444095029560      44.072500000000
      3326    2       15.945000000000       9.205850042229      44.072500000000
      3327    2       15.945000000000       7.364680033783      41.480000000000
      3328    2       17.539500000000      10.126435046451      41.480000000000
      3329    1       20.728500000000       6.444095029560      46.016875000000
      3330    1       19.134000000000       9.205850042229      46.016875000000
      3331    1       19.134000000000       7.364680033783      43.424375000000
      3332    1       20.728500000000      10.126435046451      43.424375000000
      3333    2       20.728500000000       6.444095029560      44.072500000000
      3334    2       19.134000000000       9.205850042229      44.072500000000
      3335    2       19.134000000000       7.364680033783      41.480000000000
      3336    2       20.728500000000      10.126435046451      41.480000000000
      3337    1       23.917500000000       6.444095029560      46.016875000000
      3338    1       22.323000000000       9.205850042229      46.016875000000
      3339    1       22.323000000000       7.364680033783      43.424375000000
      3340    1       23.917500000000      10.126435046451      43.424375000000
      3341    2       23.917500000000       6.444095029560      44.072500000000
      3342    2       22.323000000000       9.205850042229      44.072500000000
      3343    2       22.323000000000       7.364680033783      41.480000000000
      3344    2       23.917500000000      10.126435046451      41.480000000000
      3345    1       27.106500000000       6.444095029560      46.016875000000
      3346    1       25.512000000000       9.205850042229      46.016875000000
      3347    1       25.512000000000       7.364680033783      43.424375000000
      3348    1       27.106500000000      10.126435046451      43.424375000000
      3349    2       27.106500000000       6.444095029560      44.072500000000
      3350    2       25.512000000000       9.205850042229      44.072500000000
      3351    2       25.512000000000       7.364680033783      41.480000000000
      3352    2       27.106500000000      10.126435046451      41.480000000000
      3353    1       30.295500000000       6.444095029560      46.016875000000
      3354    1       28.701000000000       9.205850042229      46.016875000000
      3355    1       28.701000000000       7.364680033783      43.424375000000
      3356    1       30.295500000000      10.126435046451      43.424375000000
      3357    2       30.295500000000       6.444095029560      44.072500000000
      3358    2       28.701000000000       9.205850042229      44.072500000000
      3359    2       28.701000000000       7.364680033783      41.480000000000
      3360    2       30.295500000000      10.126435046451      41.480000000000
      3361    1        1.594500000000      11.967605054897      46.016875000000
      3362    1        0.000000000000      14.729360067566      46.016875000000
      3363    1        0.000000000000      12.888190059120      43.424375000000
      3364    1        1.594500000000      15.649945071789      43.424375000000
      3365    2        1.594500000000      11.967605054897      44.072500000000
      3366    2        0.000000000000      14.729360067566      44.072500000000
      3367    2        0.000000000000      12.888190059120      41.480000000000
      3368    2        1.594500000000      15.649945071789      41.480000000000
      3369    1        4.783500000000      11.967605054897      46.016875000000
      3370    1        3.189000000000      14.729360067566      46.016875000000
      3371    1        3.189000000000      12.888190059120      43.424375000000
      3372    1        4.783500000000      15.649945071789      43.424375000000
      3373    2        4.783500000000      11.967605054897      44.072500000000
      3374    2        3.189000000000      14.729360067566      44.072500000000
      3375    2        3.189000000000      12.888190059120      41.480000000000
      3376    2        4.783500000000      15.649945071789      41.480000000000
      3377    1        7.972500000000      11.967605054897      46.016875000000
      3378    1        6.378000000000      14.729360067566      46.016875000000
      3379    1        6.378000000000      12.888190059120      43.424375000000
      3380    1        7.972500000000      15.649945071789      43.424375000000
      3381    2        7.972500000000      11.967605054897      44.072500000000
      3382    2        6.378000000000      14.729360067566      44.072500000000
      3383    2        6.378000000000      12.888190059120      41.480000000000
      3384    2        7.972500000000      15.649945071789      41.480000000000
      3385    1       11.161500000000      11.967605054897      46.016875000000
      3386    1        9.567000000000      14.729360067566      46.016875000000
      3387    1        9.567000000000      12.888190059120      43.424375000000
      3388    1       11.161500000000      15.649945071789      43.424375000000
      3389    2       11.161500000000      11.967605054897      44.072500000000
      3390    2        9.567000000000      14.729360067566      44.072500000000
      3391    2        9.567000000000      12.888190059120      41.480000000000
      3392    2       11.161500000000      15.649945071789      41.480000000000
      3393    1       14.350500000000      11.967605054897      46.016875000000
      3394    1       12.756000000000      14.729360067566      46.016875000000
      3395    1       12.756000000000      12.888190059120      43.424375000000
      3396    1       14.350500000000      15.649945071789      43.424375000000
      3397    2       14.350500000000      11.967605054897      44.072500000000
      3398    2       12.756000000000      14.729360067566      44.072500000000
      3399    2       12.756000000000      12.888190059120      41.480000000000
      3400    2       14.350500000000      15.649945071789      41.480000000000
      3401    1       17.539500000000      11.967605054897      46.016875000000
      3402    1       15.945000000000      14.729360067566      46.016875000000
      3403    1       15.945000000000      12.888190059120      43.424375000000
      3404    1       17.539500000000      15.649945071789      43.424375000000
      3405    2       17.539500000000      11.967605054897      44.072500000000
      3406    2       15.945000000000      14.729360067566      44.072500000000
      3407    2       15.945000000000      12.888190059120      41.480000000000
      3408    2       17.539500000000      15.649945071789      41.480000000000
      3409    1       20.728500000000      11.967605054897      46.016875000000
      3410    1       19.134000000000      14.729360067566      46.016875000000
      3411    1       19.134000000000      12.888190059120      43.424375000000
      3412    1       20.728500000000      15.649945071789      43.424375000000
      3413    2       20.728500000000      11.967605054897      44.072500000000
      3414    2       19.134000000000      14.729360067566      44.072500000000
      3415    2       19.134000000000      12.888190059120      41.480000000000
      3416    2       20.728500000000      15.649945071789      41.480000000000
      3417    1       23.917500000000      11.967605054897      46.016875000000
      3418    1       22.323000000000      14.729360067566      46.016875000000
      3419    1       22.323000000000      12.888190059120      43.424375000000
      3420    1       23.917500000000      15.649945071789      43.424375000000
      3421    2       23.917500000000      11.967605054897      44.072500000000
      3422    2       22.323000000000      14.729360067566      44.072500000000
      3423    2       22.323000000000      12.888190059120      41.480000000000
      3424    2       23.917500000000      15.649945071789      41.480000000000
      3425    1       27.106500000000      11.967605054897      46.016875000000
      3426    1       25.512000000000      14.729360067566      46.016875000000
      3427    1       25.512000000000      12.888190059120      43.424375000000
      3428    1       27.106500000000      15.649945071789      43.424375000000
      3429    2       27.106500000000      11.967605054897      44.072500000000
      3430    2       25.512000000000      14.729360067566      44.072500000000
      3431    2       25.512000000000      12.888190059120      41.480000000000
      3432    2       27.106500000000      15.649945071789      41.480000000000
      3433    1       30.295500000000      11.967605054897      46.016875000000
      3434    1       28.701000000000      14.729360067566      46.016875000000
      3435    1       28.701000000000      12.888190059120      43.424375000000
      3436    1       30.295500000000      15.649945071789      43.424375000000
      3437    2       30.295500000000      11.967605054897      44.072500000000
      3438    2       28.701000000000      14.729360067566      44.072500000000
      3439    2       28.701000000000      12.888190059120      41.480000000000
      3440    2       30.295500000000      15.649945071789      41.480000000000
      3441    1        1.594500000000      17.491115080234      46.016875000000
      3442    1        0.000000000000      20.252870092903      46.016875000000
      3443    1        0.000000000000      18.411700084457      43.424375000000
      3444    1        1.594500000000      21.173455097126      43.424375000000
      3445    2        1.594500000000      17.491115080234      44.072500000000
      3446    2        0.000000000000      20.252870092903      44.072500000000
      3447    2        0.000000000000      18.411700084457      41.480000000000
      3448    2        1.594500000000      21.173455097126      41.480000000000
      3449    1        4.783500000000      17.491115080234      46.016875000000
      3450    1        3.189000000000      20.252870092903      46.016875000000
      3451    1        3.189000000000      18.411700084457      43.424375000000
      3452    1        4.783500000000      21.173455097126      43.424375000000
      3453    2        4.783500000000      17.491115080234      44.072500000000
      3454    2        3.189000000000      20.252870092903      44.072500000000
      3455    2        3.189000000000      18.411700084457      41.480000000000
      3456    2        4.783500000000      21.173455097126      41.480000000000
      3457    1        7.972500000000      17.491115080234      46.016875000000
      3458    1        6.378000000000      20.252870092903      46.016875000000
      3459    1        6.378000000000      18.411700084457      43.424375000000
      3460    1        7.972500000000      21.173455097126      43.424375000000
      3461    2        7.972500000000      17.491115080234      44.072500000000
      3462    2        6.378000000000      20.252870092903      44.072500000000
      3463    2        6.378000000000      18.411700084457      41.480000000000
      3464    2        7.972500000000      21.173455097126      41.480000000000
      3465    1       11.161500000000      17.491115080234      46.016875000000
      3466    1        9.567000000000      20.252870092903      46.016875000000
      3467    1        9.567000000000      18.411700084457      43.424375000000
      3468    1       11.161500000000      21.173455097126      43.424375000000
      3469    2       11.161500000000      17.491115080234      44.072500000000
      3470    2        9.567000000000      20.252870092903      44.072500000000
      3471    2        9.567000000000      18.411700084457      41.480000000000
      3472    2       11.161500000000      21.173455097126      41.480000000000
      3473    1       14.350500000000      17.491115080234      46.016875000000
      3474    1       12.756000000000      20.252870092903      46.016875000000
      3475    1       12.756000000000      18.411700084457      43.424375000000
      3476    1       14.350500000000      21.173455097126      43.424375000000
      3477    2       14.350500000000      17.491115080234      44.072500000000
      3478    2       12.756000000000      20.252870092903      44.072500000000
      3479    2       12.756000000000      18.411700084457      41.480000000000
      3480    2       14.350500000000      21.173455097126      41.480000000000
      3481    1       17.539500000000      17.491115080234      46.016875000000
      3482    1       15.945000000000      20.252870092903      46.016875000000
      3483    1       15.945000000000      18.411700084457      43.424375000000
      3484    1       17.539500000000      21.173455097126      43.424375000000
      3485    2       17.539500000000      17.491115080234      44.072500000000
      3486    2       15.945000000000      20.252870092903      44.072500000000
      3487    2       15.945000000000      18.411700084457      41.480000000000
      3488    2       17.539500000000      21.173455097126      41.480000000000
      3489    1       20.728500000000      17.491115080234      46.016875000000
      3490    1       19.134000000000      20.252870092903      46.016875000000
      3491    1       19.134000000000      18.411700084457      43.424375000000
      3492    1       20.728500000000      21.173455097126      43.424375000000
      3493    2       20.728500000000      17.491115080234      44.072500000000
      3494    2       19.134000000000      20.252870092903      44.072500000000
      3495    2       19.134000000000      18.411700084457      41.480000000000
      3496    2       20.728500000000      21.173455097126      41.480000000000
      3497    1       23.917500000000      17.491115080234      46.016875000000
      3498    1       22.323000000000      20.252870092903      46.016875000000
      3499    1       22.323000000000      18.411700084457      43.424375000000
      3500    1       23.917500000000      21.173455097126      43.424375000000
      3501    2       23.917500000000      17.491115080234      44.072500000000
      3502    2       22.323000000000      20.252870092903      44.072500000000
      3503    2       22.323000000000      18.411700084457      41.480000000000
      3504    2       23.917500000000      21.173455097126      41.480000000000
      3505    1       27.106500000000      17.491115080234      46.016875000000
      3506    1       25.512000000000      20.252870092903      46.016875000000
      3507    1       25.512000000000      18.411700084457      43.424375000000
      3508    1       27.106500000000      21.173455097126      43.424375000000
      3509    2       27.106500000000      17.491115080234      44.072500000000
      3510    2       25.512000000000      20.252870092903      44.072500000000
      3511    2       25.512000000000      18.411700084457      41.480000000000
      3512    2       27.106500000000      21.173455097126      41.480000000000
      3513    1       30.295500000000      17.491115080234      46.016875000000
      3514    1       28.701000000000      20.252870092903      46.016875000000
      3515    1       28.701000000000      18.411700084457      43.424375000000
      3516    1       30.295500000000      21.173455097126      43.424375000000
      3517    2       30.295500000000      17.491115080234      44.072500000000
      3518    2       28.701000000000      20.252870092903      44.072500000000
      3519    2       28.701000000000      18.411700084457      41.480000000000
      3520    2       30.295500000000      21.173455097126      41.480000000000
      3521    1        1.594500000000      23.014625105571      46.016875000000
      3522    1        0.000000000000      25.776380118240      46.016875000000
      3523    1        0.000000000000      23.935210109794      43.424375000000
      3524    1        1.594500000000      26.696965122463      43.424375000000
      3525    2        1.594500000000      23.014625105571      44.072500000000
      3526    2        0.000000000000      25.776380118240      44.072500000000
      3527    2        0.000000000000      23.935210109794      41.480000000000
      3528    2        1.594500000000      26.696965122463      41.480000000000
      3529    1        4.783500000000      23.014625105571      46.016875000000
      3530    1        3.189000000000      25.776380118240      46.016875000000
      3531    1        3.189000000000      23.935210109794      43.424375000000
      3532    1        4.783500000000      26.696965122463      43.424375000000
      3533    2        4.783500000000      23.014625105571      44.072500000000
      3534    2        3.189000000000      25.776380118240      44.072500000000
      3535    2        3.189000000000      23.935210109794      41.480000000000
      3536    2        4.783500000000      26.696965122463      41.480000000000
      3537    1        7.972500000000      23.014625105571      46.016875000000
      3538    1        6.378000000000      25.776380118240      46.016875000000
      3539    1        6.378000000000      23.935210109794      43.424375000000
      3540    1        7.972500000000      26.696965122463      43.424375000000
      3541    2        7.972500000000      23.014625105571      44.072500000000
      3542    2        6.378000000000      25.776380118240      44.072500000000
      3543    2        6.378000000000      23.935210109794      41.480000000000
      3544    2        7.972500000000      26.696965122463      41.480000000000
      3545    1       11.161500000000      23.014625105571      46.016875000000
      3546    1        9.567000000000      25.776380118240      46.016875000000
      3547    1        9.567000000000      23.935210109794      43.424375000000
      3548    1       11.161500000000      26.696965122463      43.424375000000
      3549    2       11.161500000000      23.014625105571      44.072500000000
      3550    2        9.567000000000      25.776380118240      44.072500000000
      3551    2        9.567000000000      23.935210109794      41.480000000000
      3552    2       11.161500000000      26.696965122463      41.480000000000
      3553    1       14.350500000000      23.014625105571      46.016875000000
      3554    1       12.756000000000      25.776380118240      46.016875000000
      3555    1       12.756000000000      23.935210109794      43.424375000000
      3556    1       14.350500000000      26.696965122463      43.424375000000
      3557    2       14.350500000000      23.014625105571      44.072500000000
      3558    2       12.756000000000      25.776380118240      44.072500000000
      3559    2       12.756000000000      23.935210109794      41.480000000000
      3560    2       14.350500000000      26.696965122463      41.480000000000
      3561    1       17.539500000000      23.014625105571      46.016875000000
      3562    1       15.945000000000      25.776380118240      46.016875000000
      3563    1       15.945000000000      23.935210109794      43.424375000000
      3564    1       17.539500000000      26.696965122463      43.424375000000
      3565    2       17.539500000000      23.014625105571      44.072500000000
      3566    2       15.945000000000      25.776380118240      44.072500000000
      3567    2       15.945000000000      23.935210109794      41.480000000000
      3568    2       17.539500000000      26.696965122463      41.480000000000
      3569    1       20.728500000000      23.014625105571      46.016875000000
      3570    1       19.134000000000      25.776380118240      46.016875000000
      3571    1       19.134000000000      23.935210109794      43.424375000000
      3572    1       20.728500000000      26.696965122463      43.424375000000
      3573    2       20.728500000000      23.014625105571      44.072500000000
      3574    2       19.134000000000      25.776380118240      44.072500000000
      3575    2       19.134000000000      23.935210109794      41.480000000000
      3576    2       20.728500000000      26.696965122463      41.480000000000
      3577    1       23.917500000000      23.014625105571      46.016875000000
      3578    1       22.323000000000      25.776380118240      46.016875000000
      3579    1       22.323000000000      23.935210109794      43.424375000000
      3580    1       23.917500000000      26.696965122463      43.424375000000
      3581    2       23.917500000000      23.014625105571      44.072500000000
      3582    2       22.323000000000      25.776380118240      44.072500000000
      3583    2       22.323000000000      23.935210109794      41.480000000000
      3584    2       23.917500000000      26.696965122463      41.480000000000
      3585    1       27.106500000000      23.014625105571      46.016875000000
      3586    1       25.512000000000      25.776380118240      46.016875000000
      3587    1       25.512000000000      23.935210109794      43.424375000000
      3588    1       27.106500000000      26.696965122463      43.424375000000
      3589    2       27.106500000000      23.014625105571      44.072500000000
      3590    2       25.512000000000      25.776380118240      44.072500000000
      3591    2       25.512000000000      23.935210109794      41.480000000000
      3592    2       27.106500000000      26.696965122463      41.480000000000
      3593    1       30.295500000000      23.014625105571      46.016875000000
      3594    1       28.701000000000      25.776380118240      46.016875000000
      3595    1       28.701000000000      23.935210109794      43.424375000000
      3596    1       30.295500000000      26.696965122463      43.424375000000
      3597    2       30.295500000000      23.014625105571      44.072500000000
      3598    2       28.701000000000      25.776380118240      44.072500000000
      3599    2       28.701000000000      23.935210109794      41.480000000000
      3600    2       30.295500000000      26.696965122463      41.480000000000
      3601    1        1.594500000000       0.920585004223      51.201875000000
      3602    1        0.000000000000       3.682340016891      51.201875000000
      3603    1        0.000000000000       1.841170008446      48.609375000000
      3604    1        1.594500000000       4.602925021114      48.609375000000
      3605    2        1.594500000000       0.920585004223      49.257500000000
      3606    2        0.000000000000       3.682340016891      49.257500000000
      3607    2        0.000000000000       1.841170008446      46.665000000000
      3608    2        1.594500000000       4.602925021114      46.665000000000
      3609    1        4.783500000000       0.920585004223      51.201875000000
      3610    1        3.189000000000       3.682340016891      51.201875000000
      3611    1        3.189000000000       1.841170008446      48.609375000000
      3612    1        4.783500000000       4.602925021114      48.609375000000
      3613    2        4.783500000000       0.920585004223      49.257500000000
      3614    2        3.189000000000       3.682340016891      49.257500000000
      3615    2        3.189000000000       1.841170008446      46.665000000000
      3616    2        4.783500000000       4.602925021114      46.665000000000
      3617    1        7.972500000000       0.920585004223      51.201875000000
      3618    1        6.378000000000       3.682340016891      51.201875000000
      3619    1        6.378000000000       1.841170008446      48.609375000000
      3620    1        7.972500000000       4.602925021114      48.609375000000
      3621    2        7.972500000000       0.920585004223      49.257500000000
      3622    2        6.378000000000       3.682340016891      49.257500000000
      3623    2        6.378000000000       1.841170008446      46.665000000000
      3624    2        7.972500000000       4.602925021114      46.665000000000
      3625    1       11.161500000000       0.920585004223      51.201875000000
      3626    1        9.567000000000       3.682340016891      51.201875000000
      3627    1        9.567000000000       1.841170008446      48.609375000000
      3628    1       11.161500000000       4.602925021114      48.609375000000
      3629    2       11.161500000000       0.920585004223      49.257500000000
      3630    2        9.567000000000       3.682340016891      49.257500000000
      3631    2        9.567000000000       1.841170008446      46.665000000000
      3632    2       11.161500000000       4.602925021114      46.665000000000
      3633    1       14.350500000000       0.920585004223      51.201875000000
      3634    1       12.756000000000       3.682340016891      51.201875000000
      3635    1       12.756000000000       1.841170008446      48.609375000000
      3636    1       14.350500000000       4.602925021114      48.609375000000
      3637    2       14.350500000000       0.920585004223      49.257500000000
      3638    2       12.756000000000       3.682340016891      49.257500000000
      3639    2       12.756000000000       1.841170008446      46.665000000000
      3640    2       14.350500000000       4.602925021114      46.665000000000
      3641    1       17.539500000000       0.920585004223      51.201875000000
      3642    1       15.945000000000       3.682340016891      51.201875000000
      3643    1       15.945000000000       1.841170008446      48.609375000000
      3644    1       17.539500000000       4.602925021114      48.609375000000
      3645    2       17.539500000000       0.920585004223      49.257500000000
      3646    2       15.945000000000       3.682340016891      49.257500000000
      3647    2       15.945000000000       1.841170008446      46.665000000000
      3648    2       17.539500000000       4.602925021114      46.665000000000
      3649    1       20.728500000000       0.920585004223      51.201875000000
      3650    1       19.134000000000       3.682340016891      51.201875000000
      3651    1       19.134000000000       1.841170008446      48.609375000000
      3652    1       20.728500000000       4.602925021114      48.609375000000
      3653    2       20.728500000000       0.920585004223      49.257500000000
      3654    2       19.134000000000       3.682340016891      49.257500000000
      3655    2       19.134000000000       1.841170008446      46.665000000000
      3656    2       20.728500000000       4.602925021114      46.665000000000
      3657    1       23.917500000000       0.920585004223      51.201875000000
      3658    1       22.323000000000       3.682340016891      51.201875000000
      3659    1       22.323000000000       1.841170008446      48.609375000000
      3660    1       23.917500000000       4.602925021114      48.609375000000
      3661    2       23.917500000000       0.920585004223      49.257500000000
      3662    2       22.323000000000       3.682340016891      49.257500000000
      3663    2       22.323000000000       1.841170008446      46.665000000000
      3664    2       23.917500000000       4.602925021114      46.665000000000
      3665    1       27.106500000000       0.920585004223      51.201875000000
      3666    1       25.512000000000       3.682340016891      51.201875000000
      3667    1       25.512000000000       1.841170008446      48.609375000000
      3668    1       27.106500000000       4.602925021114      48.609375000000
      3669    2       27.106500000000       0.920585004223      49.257500000000
      3670    2       25.512000000000       3.682340016891      49.257500000000
      3671    2       25.512000000000       1.841170008446      46.665000000000
      3672    2       27.106500000000       4.602925021114      46.665000000000
      3673    1       30.295500000000       0.920585004223      51.201875000000
      3674    1       28.701000000000       3.682340016891      51.201875000000
      3675    1       28.701000000000       1.841170008446      48.609375000000
      3676    1       30.295500000000       4.602925021114      48.609375000000
      3677    2       30.295500000000       0.920585004223      49.257500000000
      3678    2       28.701000000000       3.682340016891      49.257500000000
      3679    2       28.701000000000       1.841170008446      46.665000000000
      3680    2       30.295500000000       4.602925021114      46.665000000000
      3681    1        1.594500000000       6.444095029560      51.201875000000
      3682    1        0.000000000000       9.205850042229      51.201875000000
      3683    1        0.000000000000       7.364680033783      48.609375000000
      3684    1        1.594500000000      10.126435046451      48.609375000000
      3685    2        1.594500000000       6.444095029560      49.257500000000
      3686    2        0.000000000000       9.205850042229      49.257500000000
      3687    2        0.000000000000       7.364680033783      46.665000000000
      3688    2        1.594500000000      10.126435046451      46.665000000000
      3689    1        4.783500000000       6.444095029560      51.201875000000
      3690    1        3.189000000000       9.205850042229      51.201875000000
      3691    1        3.189000000000       7.364680033783      48.609375000000
      3692    1        4.783500000000      10.126435046451      48.609375000000
      3693    2        4.783500000000       6.444095029560      49.257500000000
      3694    2        3.189000000000       9.205850042229      49.257500000000
      3695    2        3.189000000000       7.364680033783      46.665000000000
      3696    2        4.783500000000      10.126435046451      46.665000000000
      3697    1        7.972500000000       6.444095029560      51.201875000000
      3698    1        6.378000000000       9.205850042229      51.201875000000
      3699    1        6.378000000000       7.364680033783      48.609375000000
      3700    1        7.972500000000      10.126435046451      48.609375000000
      3701    2        7.972500000000       6.444095029560      49.257500000000
      3702    2        6.378000000000       9.205850042229      49.257500000000
      3703    2        6.378000000000       7.364680033783      46.665000000000
      3704    2        7.972500000000      10.126435046451      46.665000000000
      3705    1       11.161500000000       6.444095029560      51.201875000000
      3706    1        9.567000000000       9.205850042229      51.201875000000
      3707    1        9.567000000000       7.364680033783      48.609375000000
      3708    1       11.161500000000      10.126435046451      48.609375000000
      3709    2       11.161500000000       6.444095029560      49.257500000000
      3710    2        9.567000000000       9.205850042229      49.257500000000
      3711    2        9.567000000000       7.364680033783      46.665000000000
      3712    2       11.161500000000      10.126435046451      46.665000000000
      3713    1       14.350500000000       6.444095029560      51.201875000000
      3714    1       12.756000000000       9.205850042229      51.201875000000
      3715    1       12.756000000000       7.364680033783      48.609375000000
      3716    1       14.350500000000      10.126435046451      48.609375000000
      3717    2       14.350500000000       6.444095029560      49.257500000000
      3718    2       12.756000000000       9.205850042229      49.257500000000
      3719    2       12.756000000000       7.364680033783      46.665000000000
      3720    2       14.350500000000      10.126435046451      46.665000000000
      3721    1       17.539500000000       6.444095029560      51.201875000000
      3722    1       15.945000000000       9.205850042229      51.201875000000
      3723    1       15.945000000000       7.364680033783      48.609375000000
      3724    1       17.539500000000      10.126435046451      48.609375000000
      3725    2       17.539500000000       6.444095029560      49.257500000000
      3726    2       15.945000000000       9.205850042229      49.257500000000
      3727    2       15.945000000000       7.364680033783      46.665000000000
      3728    2       17.539500000000      10.126435046451      46.665000000000
      3729    1       20.728500000000       6.444095029560      51.201875000000
      3730    1       19.134000000000       9.205850042229      51.201875000000
      3731    1       19.134000000000       7.364680033783      48.609375000000
      3732    1       20.728500000000      10.126435046451      48.609375000000
      3733    2       20.728500000000       6.444095029560      49.257500000000
      3734    2       19.134000000000       9.205850042229      49.257500000000
      3735    2       19.134000000000       7.364680033783      46.665000000000
      3736    2       20.728500000000      10.126435046451      46.665000000000
      3737    1       23.917500000000       6.444095029560      51.201875000000
      3738    1       22.323000000000       9.205850042229      51.201875000000
      3739    1       22.323000000000       7.364680033783      48.609375000000
      3740    1       23.917500000000      10.126435046451      48.609375000000
      3741    2       23.917500000000       6.444095029560      49.257500000000
      3742    2       22.323000000000       9.205850042229      49.257500000000
      3743    2       22.323000000000       7.364680033783      46.665000000000
      3744    2       23.917500000000      10.126435046451      46.665000000000
      3745    1       27.106500000000       6.444095029560      51.201875000000
      3746    1       25.512000000000       9.205850042229      51.201875000000
      3747    1       25.512000000000       7.364680033783      48.609375000000
      3748    1       27.106500000000      10.126435046451      48.609375000000
      3749    2       27.106500000000       6.444095029560      49.257500000000
      3750    2       25.512000000000       9.205850042229      49.257500000000
      3751    2       25.512000000000       7.364680033783      46.665000000000
      3752    2       27.106500000000      10.126435046451      46.665000000000
      3753    1       30.295500000000       6.444095029560      51.201875000000
      3754    1       28.701000000000       9.205850042229      51.201875000000
      3755    1       28.701000000000       7.364680033783      48.609375000000
      3756    1       30.295500000000      10.126435046451      48.609375000000
      3757    2       30.295500000000       6.444095029560      49.257500000000
      3758    2       28.701000000000       9.205850042229      49.257500000000
      3759    2       28.701000000000       7.364680033783      46.665000000000
      3760    2       30.295500000000      10.126435046451      46.665000000000
      3761    1        1.594500000000      11.967605054897      51.201875000000
      3762    1        0.000000000000      14.729360067566      51.201875000000
      3763    1        0.000000000000      12.888190059120      48.609375000000
      3764    1        1.594500000000      15.649945071789      48.609375000000
      3765    2        1.594500000000      11.967605054897      49.257500000000
      3766    2        0.000000000000      14.729360067566      49.257500000000
      3767    2        0.000000000000      12.888190059120      46.665000000000
      3768    2        1.594500000000      15.649945071789      46.665000000000
      3769    1        4.783500000000      11.967605054897      51.201875000000
      3770    1        3.189000000000      14.729360067566      51.201875000000
      3771    1        3.189000000000      12.888190059120      48.609375000000
      3772    1        4.783500000000      15.649945071789      48.609375000000
      3773    2        4.783500000000      11.967605054897      49.257500000000
      3774    2        3.189000000000      14.729360067566      49.257500000000
      3775    2        3.189000000000      12.888190059120      46.665000000000
      3776    2        4.783500000000      15.649945071789      46.665000000000
      3777    1        7.972500000000      11.967605054897      51.201875000000
      3778    1        6.378000000000      14.729360067566      51.201875000000
      3779    1        6.378000000000      12.888190059120      48.609375000000
      3780    1        7.972500000000      15.649945071789      48.609375000000
      3781    2        7.972500000000      11.967605054897      49.257500000000
      3782    2        6.378000000000      14.729360067566      49.257500000000
      3783    2        6.378000000000      12.888190059120      46.665000000000
      3784    2        7.972500000000      15.649945071789      46.665000000000
      3785    1       11.161500000000      11.967605054897      51.201875000000
      3786    1        9.567000000000      14.729360067566      51.201875000000
      3787    1        9.567000000000      12.888190059120      48.609375000000
      3788    1       11.161500000000      15.649945071789      48.609375000000
      3789    2       11.161500000000      11.967605054897      49.257500000000
      3790    2        9.567000000000      14.729360067566      49.257500000000
      3791    2        9.567000000000      12.888190059120      46.665000000000
      3792    2       11.161500000000      15.649945071789      46.665000000000
      3793    1       14.350500000000      11.967605054897      51.201875000000
      3794    1       12.756000000000      14.729360067566      51.201875000000
      3795    1       12.756000000000      12.888190059120      48.609375000000
      3796    1       14.350500000000      15.649945071789      48.609375000000
      3797    2       14.350500000000      11.967605054897      49.257500000000
      3798    2       12.756000000000      14.729360067566      49.257500000000
      3799    2       12.756000000000      12.888190059120      46.665000000000
      3800    2       14.350500000000      15.649945071789      46.665000000000
      3801    1       17.539500000000      11.967605054897      51.201875000000
      3802    1       15.945000000000      14.729360067566      51.201875000000
      3803    1       15.945000000000      12.888190059120      48.609375000000
      3804    1       17.539500000000      15.649945071789      48.609375000000
      3805    2       17.539500000000      11.967605054897      49.257500000000
      3806    2       15.945000000000      14.729360067566      49.257500000000
      3807    2       15.945000000000      12.888190059120      46.665000000000
      3808    2       17.539500000000      15.649945071789      46.665000000000
      3809    1       20.728500000000      11.967605054897      51.201875000000
      3810    1       19.134000000000      14.729360067566      51.201875000000
      3811    1       19.134000000000      12.888190059120      48.609375000000
      3812    1       20.728500000000      15.649945071789      48.609375000000
      3813    2       20.728500000000      11.967605054897      49.257500000000
      3814    2       19.134000000000      14.729360067566      49.257500000000
      3815    2       19.134000000000      12.888190059120      46.665000000000
      3816    2       20.728500000000      15.649945071789      46.665000000000
      3817    1       23.917500000000      11.967605054897      51.201875000000
      3818    1       22.323000000000      14.729360067566      51.201875000000
      3819    1       22.323000000000      12.888190059120      48.609375000000
      3820    1       23.917500000000      15.649945071789      48.609375000000
      3821    2       23.917500000000      11.967605054897      49.257500000000
      3822    2       22.323000000000      14.729360067566      49.257500000000
      3823    2       22.323000000000      12.888190059120      46.665000000000
      3824    2       23.917500000000      15.649945071789      46.665000000000
      3825    1       27.106500000000      11.967605054897      51.201875000000
      3826    1       25.512000000000      14.729360067566      51.201875000000
      3827    1       25.512000000000      12.888190059120      48.609375000000
      3828    1       27.106500000000      15.649945071789      48.609375000000
      3829    2       27.106500000000      11.967605054897      49.257500000000
      3830    2       25.512000000000      14.729360067566      49.257500000000
      3831    2       25.512000000000      12.888190059120      46.665000000000
      3832    2       27.106500000000      15.649945071789      46.665000000000
      3833    1       30.295500000000      11.967605054897      51.201875000000
      3834    1       28.701000000000      14.729360067566      51.201875000000
      3835    1       28.701000000000      12.888190059120      48.609375000000
      3836    1       30.295500000000      15.649945071789      48.609375000000
      3837    2       30.295500000000      11.967605054897      49.257500000000
      3838    2       28.701000000000      14.729360067566      49.257500000000
      3839    2       28.701000000000      12.888190059120      46.665000000000
      3840    2       30.295500000000      15.649945071789      46.665000000000
      3841    1        1.594500000000      17.491115080234      51.201875000000
      3842    1        0.000000000000      20.252870092903      51.201875000000
      3843    1        0.000000000000      18.411700084457      48.609375000000
      3844    1        1.594500000000      21.173455097126      48.609375000000
      3845    2        1.594500000000      17.491115080234      49.257500000000
      3846    2        0.000000000000      20.252870092903      49.257500000000
      3847    2        0.000000000000      18.411700084457      46.665000000000
      3848    2        1.594500000000      21.173455097126      46.665000000000
      3849    1        4.783500000000      17.491115080234      51.201875000000
      3850    1        3.189000000000      20.252870092903      51.201875000000
      3851    1        3.189000000000      18.411700084457      48.609375000000
      3852    1        4.783500000000      21.173455097126      48.609375000000
      3853    2        4.783500000000      17.491115080234      49.257500000000
      3854    2        3.189000000000      20.252870092903      49.257500000000
      3855    2        3.189000000000      18.411700084457      46.665000000000
      3856    2        4.783500000000      21.173455097126      46.665000000000
      3857    1        7.972500000000      17.491115080234      51.201875000000
      3858    1        6.378000000000      20.252870092903      51.201875000000
      3859    1        6.378000000000      18.411700084457      48.609375000000
      3860    1        7.972500000000      21.173455097126      48.609375000000
      3861    2        7.972500000000      17.491115080234      49.257500000000
      3862    2        6.378000000000      20.252870092903      49.257500000000
      3863    2        6.378000000000      18.411700084457      46.665000000000
      3864    2        7.972500000000      21.173455097126      46.665000000000
      3865    1       11.161500000000      17.491115080234      51.201875000000
      3866    1        9.567000000000      20.252870092903      51.201875000000
      3867    1        9.567000000000      18.411700084457      48.609375000000
      3868    1       11.161500000000      21.173455097126      48.609375000000
      3869    2       11.161500000000      17.491115080234      49.257500000000
      3870    2        9.567000000000      20.252870092903      49.257500000000
      3871    2        9.567000000000      18.411700084457      46.665000000000
      3872    2       11.161500000000      21.173455097126      46.665000000000
      3873    1       14.350500000000      17.491115080234      51.201875000000
      3874    1       12.756000000000      20.252870092903      51.201875000000
      3875    1       12.756000000000      18.411700084457      48.609375000000
      3876    1       14.350500000000      21.173455097126      48.609375000000
      3877    2       14.350500000000      17.491115080234      49.257500000000
      3878    2       12.756000000000      20.252870092903      49.257500000000
      3879    2       12.756000000000      18.411700084457      46.665000000000
      3880    2       14.350500000000      21.173455097126      46.665000000000
      3881    1       17.539500000000      17.491115080234      51.201875000000
      3882    1       15.945000000000      20.252870092903      51.201875000000
      3883    1       15.945000000000      18.411700084457      48.609375000000
      3884    1       17.539500000000      21.173455097126      48.609375000000
      3885    2       17.539500000000      17.491115080234      49.257500000000
      3886    2       15.945000000000      20.252870092903      49.257500000000
      3887    2       15.945000000000      18.411700084457      46.665000000000
      3888    2       17.539500000000      21.173455097126      46.665000000000
      3889    1       20.728500000000      17.491115080234      51.201875000000
      3890    1       19.134000000000      20.252870092903      51.201875000000
      3891    1       19.134000000000      18.411700084457      48.609375000000
      3892    1       20.728500000000      21.173455097126      48.609375000000
      3893    2       20.728500000000      17.491115080234      49.257500000000
      3894    2       19.134000000000      20.252870092903      49.257500000000
      3895    2       19.134000000000      18.411700084457      46.665000000000
      3896    2       20.728500000000      21.173455097126      46.665000000000
      3897    1       23.917500000000      17.491115080234      51.201875000000
      3898    1       22.323000000000      20.252870092903      51.201875000000
      3899    1       22.323000000000      18.411700084457      48.609375000000
      3900    1       23.917500000000      21.173455097126      48.609375000000
      3901    2       23.917500000000      17.491115080234      49.257500000000
      3902    2       22.323000000000      20.252870092903      49.257500000000
      3903    2       22.323000000000      18.411700084457      46.665000000000
      3904    2       23.917500000000      21.173455097126      46.665000000000
      3905    1       27.106500000000      17.491115080234      51.201875000000
      3906    1       25.512000000000      20.252870092903      51.201875000000
      3907    1       25.512000000000      18.411700084457      48.609375000000
      3908    1       27.106500000000      21.173455097126      48.609375000000
      3909    2       27.106500000000      17.491115080234      49.257500000000
      3910    2       25.512000000000      20.252870092903      49.257500000000
      3911    2       25.512000000000      18.411700084457      46.665000000000
      3912    2       27.106500000000      21.173455097126      46.665000000000
      3913    1       30.295500000000      17.491115080234      51.201875000000
      3914    1       28.701000000000      20.252870092903      51.201875000000
      3915    1       28.701000000000      18.411700084457      48.609375000000
      3916    1       30.295500000000      21.173455097126      48.609375000000
      3917    2       30.295500000000      17.491115080234      49.257500000000
      3918    2       28.701000000000      20.252870092903      49.257500000000
      3919    2       28.701000000000      18.411700084457      46.665000000000
      3920    2       30.295500000000      21.173455097126      46.665000000000
      3921    1        1.594500000000      23.014625105571      51.201875000000
      3922    1        0.000000000000      25.776380118240      51.201875000000
      3923    1        0.000000000000      23.935210109794      48.609375000000
      3924    1        1.594500000000      26.696965122463      48.609375000000
      3925    2        1.594500000000      23.014625105571      49.257500000000
      3926    2        0.000000000000      25.776380118240      49.257500000000
      3927    2        0.000000000000      23.935210109794      46.665000000000
      3928    2        1.594500000000      26.696965122463      46.665000000000
      3929    1        4.783500000000      23.014625105571      51.201875000000
      3930    1        3.189000000000      25.776380118240      51.201875000000
      3931    1        3.189000000000      23.935210109794      48.609375000000
      3932    1        4.783500000000      26.696965122463      48.609375000000
      3933    2        4.783500000000      23.014625105571      49.257500000000
      3934    2        3.189000000000      25.776380118240      49.257500000000
      3935    2        3.189000000000      23.935210109794      46.665000000000
      3936    2        4.783500000000      26.696965122463      46.665000000000
      3937    1        7.972500000000      23.014625105571      51.201875000000
      3938    1        6.378000000000      25.776380118240      51.201875000000
      3939    1        6.378000000000      23.935210109794      48.609375000000
      3940    1        7.972500000000      26.696965122463      48.609375000000
      3941    2        7.972500000000      23.014625105571      49.257500000000
      3942    2        6.378000000000      25.776380118240      49.257500000000
      3943    2        6.378000000000      23.935210109794      46.665000000000
      3944    2        7.972500000000      26.696965122463      46.665000000000
      3945    1       11.161500000000      23.014625105571      51.201875000000
      3946    1        9.567000000000      25.776380118240      51.201875000000
      3947    1        9.567000000000      23.935210109794      48.609375000000
      3948    1       11.161500000000      26.696965122463      48.609375000000
      3949    2       11.161500000000      23.014625105571      49.257500000000
      3950    2        9.567000000000      25.776380118240      49.257500000000
      3951    2        9.567000000000      23.935210109794      46.665000000000
      3952    2       11.161500000000      26.696965122463      46.665000000000
      3953    1       14.350500000000      23.014625105571      51.201875000000
      3954    1       12.756000000000      25.776380118240      51.201875000000
      3955    1       12.756000000000      23.935210109794      48.609375000000
      3956    1       14.350500000000      26.696965122463      48.609375000000
      3957    2       14.350500000000      23.014625105571      49.257500000000
      3958    2       12.756000000000      25.776380118240      49.257500000000
      3959    2       12.756000000000      23.935210109794      46.665000000000
      3960    2       14.350500000000      26.696965122463      46.665000000000
      3961    1       17.539500000000      23.014625105571      51.201875000000
      3962    1       15.945000000000      25.776380118240      51.201875000000
      3963    1       15.945000000000      23.935210109794      48.609375000000
      3964    1       17.539500000000      26.696965122463      48.609375000000
      3965    2       17.539500000000      23.014625105571      49.257500000000
      3966    2       15.945000000000      25.776380118240      49.257500000000
      3967    2       15.945000000000      23.935210109794      46.665000000000
      3968    2       17.539500000000      26.696965122463      46.665000000000
      3969    1       20.728500000000      23.014625105571      51.201875000000
      3970    1       19.134000000000      25.776380118240      51.201875000000
      3971    1       19.134000000000      23.935210109794      48.609375000000
      3972    1       20.728500000000      26.696965122463      48.609375000000
      3973    2       20.728500000000      23.014625105571      49.257500000000
      3974    2       19.134000000000      25.776380118240      49.257500000000
      3975    2       19.134000000000      23.935210109794      46.665000000000
      3976    2       20.728500000000      26.696965122463      46.665000000000
      3977    1       23.917500000000      23.014625105571      51.201875000000
      3978    1       22.323000000000      25.776380118240      51.201875000000
      3979    1       22.323000000000      23.935210109794      48.609375000000
      3980    1       23.917500000000      26.696965122463      48.609375000000
      3981    2       23.917500000000      23.014625105571      49.257500000000
      3982    2       22.323000000000      25.776380118240      49.257500000000
      3983    2       22.323000000000      23.935210109794      46.665000000000
      3984    2       23.917500000000      26.696965122463      46.665000000000
      3985    1       27.106500000000      23.014625105571      51.201875000000
      3986    1       25.512000000000      25.776380118240      51.201875000000
      3987    1       25.512000000000      23.935210109794      48.609375000000
      3988    1       27.106500000000      26.696965122463      48.609375000000
      3989    2       27.106500000000      23.014625105571      49.257500000000
      3990    2       25.512000000000      25.776380118240      49.257500000000
      3991    2       25.512000000000      23.935210109794      46.665000000000
      3992    2       27.106500000000      26.696965122463      46.665000000000
      3993    1       30.295500000000      23.014625105571      51.201875000000
      3994    1       28.701000000000      25.776380118240      51.201875000000
      3995    1       28.701000000000      23.935210109794      48.609375000000
      3996    1       30.295500000000      26.696965122463      48.609375000000
      3997    2       30.295500000000      23.014625105571      49.257500000000
      3998    2       28.701000000000      25.776380118240      49.257500000000
      3999    2       28.701000000000      23.935210109794      46.665000000000
      4000    2       30.295500000000      26.696965122463      46.665000000000
