 # GaN with wurtzite structure with box vectors H1=[2-1-10], H2=[-12-10], H3=[0001].
  
        4000  atoms
           2  atom types
 
0.000000000000 31.890000000000 xlo xhi
0.000000000000 51.850000000000 ylo yhi
0.000000000000 27.617550126686 zlo zhi
 
Masses
 
            1   14.00700000             # N
            2   69.72300000             # Ga
 
Atoms # atomic

1 1 1.594500000000 4.536875000000 0.920585004223
2 1 0.000000000000 4.536875000000 3.682340016891
3 1 0.000000000000 1.944375000000 1.841170008446
4 1 1.594500000000 1.944375000000 4.602925021114
5 2 1.594500000000 2.592500000000 0.920585004223
6 2 0.000000000000 2.592500000000 3.682340016891
7 2 0.000000000000 0.000000000000 1.841170008446
8 2 1.594500000000 0.000000000000 4.602925021114
9 1 4.783500000000 4.536875000000 0.920585004223
10 1 3.189000000000 4.536875000000 3.682340016891
11 1 3.189000000000 1.944375000000 1.841170008446
12 1 4.783500000000 1.944375000000 4.602925021114
13 2 4.783500000000 2.592500000000 0.920585004223
14 2 3.189000000000 2.592500000000 3.682340016891
15 2 3.189000000000 0.000000000000 1.841170008446
16 2 4.783500000000 0.000000000000 4.602925021114
17 1 7.972500000000 4.536875000000 0.920585004223
18 1 6.378000000000 4.536875000000 3.682340016891
19 1 6.378000000000 1.944375000000 1.841170008446
20 1 7.972500000000 1.944375000000 4.602925021114
21 2 7.972500000000 2.592500000000 0.920585004223
22 2 6.378000000000 2.592500000000 3.682340016891
23 2 6.378000000000 0.000000000000 1.841170008446
24 2 7.972500000000 0.000000000000 4.602925021114
25 1 11.161500000000 4.536875000000 0.920585004223
26 1 9.567000000000 4.536875000000 3.682340016891
27 1 9.567000000000 1.944375000000 1.841170008446
28 1 11.161500000000 1.944375000000 4.602925021114
29 2 11.161500000000 2.592500000000 0.920585004223
30 2 9.567000000000 2.592500000000 3.682340016891
31 2 9.567000000000 0.000000000000 1.841170008446
32 2 11.161500000000 0.000000000000 4.602925021114
33 1 14.350500000000 4.536875000000 0.920585004223
34 1 12.756000000000 4.536875000000 3.682340016891
35 1 12.756000000000 1.944375000000 1.841170008446
36 1 14.350500000000 1.944375000000 4.602925021114
37 2 14.350500000000 2.592500000000 0.920585004223
38 2 12.756000000000 2.592500000000 3.682340016891
39 2 12.756000000000 0.000000000000 1.841170008446
40 2 14.350500000000 0.000000000000 4.602925021114
41 1 17.539500000000 4.536875000000 0.920585004223
42 1 15.945000000000 4.536875000000 3.682340016891
43 1 15.945000000000 1.944375000000 1.841170008446
44 1 17.539500000000 1.944375000000 4.602925021114
45 2 17.539500000000 2.592500000000 0.920585004223
46 2 15.945000000000 2.592500000000 3.682340016891
47 2 15.945000000000 0.000000000000 1.841170008446
48 2 17.539500000000 0.000000000000 4.602925021114
49 1 20.728500000000 4.536875000000 0.920585004223
50 1 19.134000000000 4.536875000000 3.682340016891
51 1 19.134000000000 1.944375000000 1.841170008446
52 1 20.728500000000 1.944375000000 4.602925021114
53 2 20.728500000000 2.592500000000 0.920585004223
54 2 19.134000000000 2.592500000000 3.682340016891
55 2 19.134000000000 0.000000000000 1.841170008446
56 2 20.728500000000 0.000000000000 4.602925021114
57 1 23.917500000000 4.536875000000 0.920585004223
58 1 22.323000000000 4.536875000000 3.682340016891
59 1 22.323000000000 1.944375000000 1.841170008446
60 1 23.917500000000 1.944375000000 4.602925021114
61 2 23.917500000000 2.592500000000 0.920585004223
62 2 22.323000000000 2.592500000000 3.682340016891
63 2 22.323000000000 0.000000000000 1.841170008446
64 2 23.917500000000 0.000000000000 4.602925021114
65 1 27.106500000000 4.536875000000 0.920585004223
66 1 25.512000000000 4.536875000000 3.682340016891
67 1 25.512000000000 1.944375000000 1.841170008446
68 1 27.106500000000 1.944375000000 4.602925021114
69 2 27.106500000000 2.592500000000 0.920585004223
70 2 25.512000000000 2.592500000000 3.682340016891
71 2 25.512000000000 0.000000000000 1.841170008446
72 2 27.106500000000 0.000000000000 4.602925021114
73 1 30.295500000000 4.536875000000 0.920585004223
74 1 28.701000000000 4.536875000000 3.682340016891
75 1 28.701000000000 1.944375000000 1.841170008446
76 1 30.295500000000 1.944375000000 4.602925021114
77 2 30.295500000000 2.592500000000 0.920585004223
78 2 28.701000000000 2.592500000000 3.682340016891
79 2 28.701000000000 0.000000000000 1.841170008446
80 2 30.295500000000 0.000000000000 4.602925021114
81 1 1.594500000000 4.536875000000 6.444095029560
82 1 0.000000000000 4.536875000000 9.205850042229
83 1 0.000000000000 1.944375000000 7.364680033783
84 1 1.594500000000 1.944375000000 10.126435046451
85 2 1.594500000000 2.592500000000 6.444095029560
86 2 0.000000000000 2.592500000000 9.205850042229
87 2 0.000000000000 0.000000000000 7.364680033783
88 2 1.594500000000 0.000000000000 10.126435046451
89 1 4.783500000000 4.536875000000 6.444095029560
90 1 3.189000000000 4.536875000000 9.205850042229
91 1 3.189000000000 1.944375000000 7.364680033783
92 1 4.783500000000 1.944375000000 10.126435046451
93 2 4.783500000000 2.592500000000 6.444095029560
94 2 3.189000000000 2.592500000000 9.205850042229
95 2 3.189000000000 0.000000000000 7.364680033783
96 2 4.783500000000 0.000000000000 10.126435046451
97 1 7.972500000000 4.536875000000 6.444095029560
98 1 6.378000000000 4.536875000000 9.205850042229
99 1 6.378000000000 1.944375000000 7.364680033783
100 1 7.972500000000 1.944375000000 10.126435046451
101 2 7.972500000000 2.592500000000 6.444095029560
102 2 6.378000000000 2.592500000000 9.205850042229
103 2 6.378000000000 0.000000000000 7.364680033783
104 2 7.972500000000 0.000000000000 10.126435046451
105 1 11.161500000000 4.536875000000 6.444095029560
106 1 9.567000000000 4.536875000000 9.205850042229
107 1 9.567000000000 1.944375000000 7.364680033783
108 1 11.161500000000 1.944375000000 10.126435046451
109 2 11.161500000000 2.592500000000 6.444095029560
110 2 9.567000000000 2.592500000000 9.205850042229
111 2 9.567000000000 0.000000000000 7.364680033783
112 2 11.161500000000 0.000000000000 10.126435046451
113 1 14.350500000000 4.536875000000 6.444095029560
114 1 12.756000000000 4.536875000000 9.205850042229
115 1 12.756000000000 1.944375000000 7.364680033783
116 1 14.350500000000 1.944375000000 10.126435046451
117 2 14.350500000000 2.592500000000 6.444095029560
118 2 12.756000000000 2.592500000000 9.205850042229
119 2 12.756000000000 0.000000000000 7.364680033783
120 2 14.350500000000 0.000000000000 10.126435046451
121 1 17.539500000000 4.536875000000 6.444095029560
122 1 15.945000000000 4.536875000000 9.205850042229
123 1 15.945000000000 1.944375000000 7.364680033783
124 1 17.539500000000 1.944375000000 10.126435046451
125 2 17.539500000000 2.592500000000 6.444095029560
126 2 15.945000000000 2.592500000000 9.205850042229
127 2 15.945000000000 0.000000000000 7.364680033783
128 2 17.539500000000 0.000000000000 10.126435046451
129 1 20.728500000000 4.536875000000 6.444095029560
130 1 19.134000000000 4.536875000000 9.205850042229
131 1 19.134000000000 1.944375000000 7.364680033783
132 1 20.728500000000 1.944375000000 10.126435046451
133 2 20.728500000000 2.592500000000 6.444095029560
134 2 19.134000000000 2.592500000000 9.205850042229
135 2 19.134000000000 0.000000000000 7.364680033783
136 2 20.728500000000 0.000000000000 10.126435046451
137 1 23.917500000000 4.536875000000 6.444095029560
138 1 22.323000000000 4.536875000000 9.205850042229
139 1 22.323000000000 1.944375000000 7.364680033783
140 1 23.917500000000 1.944375000000 10.126435046451
141 2 23.917500000000 2.592500000000 6.444095029560
142 2 22.323000000000 2.592500000000 9.205850042229
143 2 22.323000000000 0.000000000000 7.364680033783
144 2 23.917500000000 0.000000000000 10.126435046451
145 1 27.106500000000 4.536875000000 6.444095029560
146 1 25.512000000000 4.536875000000 9.205850042229
147 1 25.512000000000 1.944375000000 7.364680033783
148 1 27.106500000000 1.944375000000 10.126435046451
149 2 27.106500000000 2.592500000000 6.444095029560
150 2 25.512000000000 2.592500000000 9.205850042229
151 2 25.512000000000 0.000000000000 7.364680033783
152 2 27.106500000000 0.000000000000 10.126435046451
153 1 30.295500000000 4.536875000000 6.444095029560
154 1 28.701000000000 4.536875000000 9.205850042229
155 1 28.701000000000 1.944375000000 7.364680033783
156 1 30.295500000000 1.944375000000 10.126435046451
157 2 30.295500000000 2.592500000000 6.444095029560
158 2 28.701000000000 2.592500000000 9.205850042229
159 2 28.701000000000 0.000000000000 7.364680033783
160 2 30.295500000000 0.000000000000 10.126435046451
161 1 1.594500000000 4.536875000000 11.967605054897
162 1 0.000000000000 4.536875000000 14.729360067566
163 1 0.000000000000 1.944375000000 12.888190059120
164 1 1.594500000000 1.944375000000 15.649945071789
165 2 1.594500000000 2.592500000000 11.967605054897
166 2 0.000000000000 2.592500000000 14.729360067566
167 2 0.000000000000 0.000000000000 12.888190059120
168 2 1.594500000000 0.000000000000 15.649945071789
169 1 4.783500000000 4.536875000000 11.967605054897
170 1 3.189000000000 4.536875000000 14.729360067566
171 1 3.189000000000 1.944375000000 12.888190059120
172 1 4.783500000000 1.944375000000 15.649945071789
173 2 4.783500000000 2.592500000000 11.967605054897
174 2 3.189000000000 2.592500000000 14.729360067566
175 2 3.189000000000 0.000000000000 12.888190059120
176 2 4.783500000000 0.000000000000 15.649945071789
177 1 7.972500000000 4.536875000000 11.967605054897
178 1 6.378000000000 4.536875000000 14.729360067566
179 1 6.378000000000 1.944375000000 12.888190059120
180 1 7.972500000000 1.944375000000 15.649945071789
181 2 7.972500000000 2.592500000000 11.967605054897
182 2 6.378000000000 2.592500000000 14.729360067566
183 2 6.378000000000 0.000000000000 12.888190059120
184 2 7.972500000000 0.000000000000 15.649945071789
185 1 11.161500000000 4.536875000000 11.967605054897
186 1 9.567000000000 4.536875000000 14.729360067566
187 1 9.567000000000 1.944375000000 12.888190059120
188 1 11.161500000000 1.944375000000 15.649945071789
189 2 11.161500000000 2.592500000000 11.967605054897
190 2 9.567000000000 2.592500000000 14.729360067566
191 2 9.567000000000 0.000000000000 12.888190059120
192 2 11.161500000000 0.000000000000 15.649945071789
193 1 14.350500000000 4.536875000000 11.967605054897
194 1 12.756000000000 4.536875000000 14.729360067566
195 1 12.756000000000 1.944375000000 12.888190059120
196 1 14.350500000000 1.944375000000 15.649945071789
197 2 14.350500000000 2.592500000000 11.967605054897
198 2 12.756000000000 2.592500000000 14.729360067566
199 2 12.756000000000 0.000000000000 12.888190059120
200 2 14.350500000000 0.000000000000 15.649945071789
201 1 17.539500000000 4.536875000000 11.967605054897
202 1 15.945000000000 4.536875000000 14.729360067566
203 1 15.945000000000 1.944375000000 12.888190059120
204 1 17.539500000000 1.944375000000 15.649945071789
205 2 17.539500000000 2.592500000000 11.967605054897
206 2 15.945000000000 2.592500000000 14.729360067566
207 2 15.945000000000 0.000000000000 12.888190059120
208 2 17.539500000000 0.000000000000 15.649945071789
209 1 20.728500000000 4.536875000000 11.967605054897
210 1 19.134000000000 4.536875000000 14.729360067566
211 1 19.134000000000 1.944375000000 12.888190059120
212 1 20.728500000000 1.944375000000 15.649945071789
213 2 20.728500000000 2.592500000000 11.967605054897
214 2 19.134000000000 2.592500000000 14.729360067566
215 2 19.134000000000 0.000000000000 12.888190059120
216 2 20.728500000000 0.000000000000 15.649945071789
217 1 23.917500000000 4.536875000000 11.967605054897
218 1 22.323000000000 4.536875000000 14.729360067566
219 1 22.323000000000 1.944375000000 12.888190059120
220 1 23.917500000000 1.944375000000 15.649945071789
221 2 23.917500000000 2.592500000000 11.967605054897
222 2 22.323000000000 2.592500000000 14.729360067566
223 2 22.323000000000 0.000000000000 12.888190059120
224 2 23.917500000000 0.000000000000 15.649945071789
225 1 27.106500000000 4.536875000000 11.967605054897
226 1 25.512000000000 4.536875000000 14.729360067566
227 1 25.512000000000 1.944375000000 12.888190059120
228 1 27.106500000000 1.944375000000 15.649945071789
229 2 27.106500000000 2.592500000000 11.967605054897
230 2 25.512000000000 2.592500000000 14.729360067566
231 2 25.512000000000 0.000000000000 12.888190059120
232 2 27.106500000000 0.000000000000 15.649945071789
233 1 30.295500000000 4.536875000000 11.967605054897
234 1 28.701000000000 4.536875000000 14.729360067566
235 1 28.701000000000 1.944375000000 12.888190059120
236 1 30.295500000000 1.944375000000 15.649945071789
237 2 30.295500000000 2.592500000000 11.967605054897
238 2 28.701000000000 2.592500000000 14.729360067566
239 2 28.701000000000 0.000000000000 12.888190059120
240 2 30.295500000000 0.000000000000 15.649945071789
241 1 1.594500000000 4.536875000000 17.491115080234
242 1 0.000000000000 4.536875000000 20.252870092903
243 1 0.000000000000 1.944375000000 18.411700084457
244 1 1.594500000000 1.944375000000 21.173455097126
245 2 1.594500000000 2.592500000000 17.491115080234
246 2 0.000000000000 2.592500000000 20.252870092903
247 2 0.000000000000 0.000000000000 18.411700084457
248 2 1.594500000000 0.000000000000 21.173455097126
249 1 4.783500000000 4.536875000000 17.491115080234
250 1 3.189000000000 4.536875000000 20.252870092903
251 1 3.189000000000 1.944375000000 18.411700084457
252 1 4.783500000000 1.944375000000 21.173455097126
253 2 4.783500000000 2.592500000000 17.491115080234
254 2 3.189000000000 2.592500000000 20.252870092903
255 2 3.189000000000 0.000000000000 18.411700084457
256 2 4.783500000000 0.000000000000 21.173455097126
257 1 7.972500000000 4.536875000000 17.491115080234
258 1 6.378000000000 4.536875000000 20.252870092903
259 1 6.378000000000 1.944375000000 18.411700084457
260 1 7.972500000000 1.944375000000 21.173455097126
261 2 7.972500000000 2.592500000000 17.491115080234
262 2 6.378000000000 2.592500000000 20.252870092903
263 2 6.378000000000 0.000000000000 18.411700084457
264 2 7.972500000000 0.000000000000 21.173455097126
265 1 11.161500000000 4.536875000000 17.491115080234
266 1 9.567000000000 4.536875000000 20.252870092903
267 1 9.567000000000 1.944375000000 18.411700084457
268 1 11.161500000000 1.944375000000 21.173455097126
269 2 11.161500000000 2.592500000000 17.491115080234
270 2 9.567000000000 2.592500000000 20.252870092903
271 2 9.567000000000 0.000000000000 18.411700084457
272 2 11.161500000000 0.000000000000 21.173455097126
273 1 14.350500000000 4.536875000000 17.491115080234
274 1 12.756000000000 4.536875000000 20.252870092903
275 1 12.756000000000 1.944375000000 18.411700084457
276 1 14.350500000000 1.944375000000 21.173455097126
277 2 14.350500000000 2.592500000000 17.491115080234
278 2 12.756000000000 2.592500000000 20.252870092903
279 2 12.756000000000 0.000000000000 18.411700084457
280 2 14.350500000000 0.000000000000 21.173455097126
281 1 17.539500000000 4.536875000000 17.491115080234
282 1 15.945000000000 4.536875000000 20.252870092903
283 1 15.945000000000 1.944375000000 18.411700084457
284 1 17.539500000000 1.944375000000 21.173455097126
285 2 17.539500000000 2.592500000000 17.491115080234
286 2 15.945000000000 2.592500000000 20.252870092903
287 2 15.945000000000 0.000000000000 18.411700084457
288 2 17.539500000000 0.000000000000 21.173455097126
289 1 20.728500000000 4.536875000000 17.491115080234
290 1 19.134000000000 4.536875000000 20.252870092903
291 1 19.134000000000 1.944375000000 18.411700084457
292 1 20.728500000000 1.944375000000 21.173455097126
293 2 20.728500000000 2.592500000000 17.491115080234
294 2 19.134000000000 2.592500000000 20.252870092903
295 2 19.134000000000 0.000000000000 18.411700084457
296 2 20.728500000000 0.000000000000 21.173455097126
297 1 23.917500000000 4.536875000000 17.491115080234
298 1 22.323000000000 4.536875000000 20.252870092903
299 1 22.323000000000 1.944375000000 18.411700084457
300 1 23.917500000000 1.944375000000 21.173455097126
301 2 23.917500000000 2.592500000000 17.491115080234
302 2 22.323000000000 2.592500000000 20.252870092903
303 2 22.323000000000 0.000000000000 18.411700084457
304 2 23.917500000000 0.000000000000 21.173455097126
305 1 27.106500000000 4.536875000000 17.491115080234
306 1 25.512000000000 4.536875000000 20.252870092903
307 1 25.512000000000 1.944375000000 18.411700084457
308 1 27.106500000000 1.944375000000 21.173455097126
309 2 27.106500000000 2.592500000000 17.491115080234
310 2 25.512000000000 2.592500000000 20.252870092903
311 2 25.512000000000 0.000000000000 18.411700084457
312 2 27.106500000000 0.000000000000 21.173455097126
313 1 30.295500000000 4.536875000000 17.491115080234
314 1 28.701000000000 4.536875000000 20.252870092903
315 1 28.701000000000 1.944375000000 18.411700084457
316 1 30.295500000000 1.944375000000 21.173455097126
317 2 30.295500000000 2.592500000000 17.491115080234
318 2 28.701000000000 2.592500000000 20.252870092903
319 2 28.701000000000 0.000000000000 18.411700084457
320 2 30.295500000000 0.000000000000 21.173455097126
321 1 1.594500000000 4.536875000000 23.014625105571
322 1 0.000000000000 4.536875000000 25.776380118240
323 1 0.000000000000 1.944375000000 23.935210109794
324 1 1.594500000000 1.944375000000 26.696965122463
325 2 1.594500000000 2.592500000000 23.014625105571
326 2 0.000000000000 2.592500000000 25.776380118240
327 2 0.000000000000 0.000000000000 23.935210109794
328 2 1.594500000000 0.000000000000 26.696965122463
329 1 4.783500000000 4.536875000000 23.014625105571
330 1 3.189000000000 4.536875000000 25.776380118240
331 1 3.189000000000 1.944375000000 23.935210109794
332 1 4.783500000000 1.944375000000 26.696965122463
333 2 4.783500000000 2.592500000000 23.014625105571
334 2 3.189000000000 2.592500000000 25.776380118240
335 2 3.189000000000 0.000000000000 23.935210109794
336 2 4.783500000000 0.000000000000 26.696965122463
337 1 7.972500000000 4.536875000000 23.014625105571
338 1 6.378000000000 4.536875000000 25.776380118240
339 1 6.378000000000 1.944375000000 23.935210109794
340 1 7.972500000000 1.944375000000 26.696965122463
341 2 7.972500000000 2.592500000000 23.014625105571
342 2 6.378000000000 2.592500000000 25.776380118240
343 2 6.378000000000 0.000000000000 23.935210109794
344 2 7.972500000000 0.000000000000 26.696965122463
345 1 11.161500000000 4.536875000000 23.014625105571
346 1 9.567000000000 4.536875000000 25.776380118240
347 1 9.567000000000 1.944375000000 23.935210109794
348 1 11.161500000000 1.944375000000 26.696965122463
349 2 11.161500000000 2.592500000000 23.014625105571
350 2 9.567000000000 2.592500000000 25.776380118240
351 2 9.567000000000 0.000000000000 23.935210109794
352 2 11.161500000000 0.000000000000 26.696965122463
353 1 14.350500000000 4.536875000000 23.014625105571
354 1 12.756000000000 4.536875000000 25.776380118240
355 1 12.756000000000 1.944375000000 23.935210109794
356 1 14.350500000000 1.944375000000 26.696965122463
357 2 14.350500000000 2.592500000000 23.014625105571
358 2 12.756000000000 2.592500000000 25.776380118240
359 2 12.756000000000 0.000000000000 23.935210109794
360 2 14.350500000000 0.000000000000 26.696965122463
361 1 17.539500000000 4.536875000000 23.014625105571
362 1 15.945000000000 4.536875000000 25.776380118240
363 1 15.945000000000 1.944375000000 23.935210109794
364 1 17.539500000000 1.944375000000 26.696965122463
365 2 17.539500000000 2.592500000000 23.014625105571
366 2 15.945000000000 2.592500000000 25.776380118240
367 2 15.945000000000 0.000000000000 23.935210109794
368 2 17.539500000000 0.000000000000 26.696965122463
369 1 20.728500000000 4.536875000000 23.014625105571
370 1 19.134000000000 4.536875000000 25.776380118240
371 1 19.134000000000 1.944375000000 23.935210109794
372 1 20.728500000000 1.944375000000 26.696965122463
373 2 20.728500000000 2.592500000000 23.014625105571
374 2 19.134000000000 2.592500000000 25.776380118240
375 2 19.134000000000 0.000000000000 23.935210109794
376 2 20.728500000000 0.000000000000 26.696965122463
377 1 23.917500000000 4.536875000000 23.014625105571
378 1 22.323000000000 4.536875000000 25.776380118240
379 1 22.323000000000 1.944375000000 23.935210109794
380 1 23.917500000000 1.944375000000 26.696965122463
381 2 23.917500000000 2.592500000000 23.014625105571
382 2 22.323000000000 2.592500000000 25.776380118240
383 2 22.323000000000 0.000000000000 23.935210109794
384 2 23.917500000000 0.000000000000 26.696965122463
385 1 27.106500000000 4.536875000000 23.014625105571
386 1 25.512000000000 4.536875000000 25.776380118240
387 1 25.512000000000 1.944375000000 23.935210109794
388 1 27.106500000000 1.944375000000 26.696965122463
389 2 27.106500000000 2.592500000000 23.014625105571
390 2 25.512000000000 2.592500000000 25.776380118240
391 2 25.512000000000 0.000000000000 23.935210109794
392 2 27.106500000000 0.000000000000 26.696965122463
393 1 30.295500000000 4.536875000000 23.014625105571
394 1 28.701000000000 4.536875000000 25.776380118240
395 1 28.701000000000 1.944375000000 23.935210109794
396 1 30.295500000000 1.944375000000 26.696965122463
397 2 30.295500000000 2.592500000000 23.014625105571
398 2 28.701000000000 2.592500000000 25.776380118240
399 2 28.701000000000 0.000000000000 23.935210109794
400 2 30.295500000000 0.000000000000 26.696965122463
401 1 1.594500000000 9.721875000000 0.920585004223
402 1 0.000000000000 9.721875000000 3.682340016891
403 1 0.000000000000 7.129375000000 1.841170008446
404 1 1.594500000000 7.129375000000 4.602925021114
405 2 1.594500000000 7.777500000000 0.920585004223
406 2 0.000000000000 7.777500000000 3.682340016891
407 2 0.000000000000 5.185000000000 1.841170008446
408 2 1.594500000000 5.185000000000 4.602925021114
409 1 4.783500000000 9.721875000000 0.920585004223
410 1 3.189000000000 9.721875000000 3.682340016891
411 1 3.189000000000 7.129375000000 1.841170008446
412 1 4.783500000000 7.129375000000 4.602925021114
413 2 4.783500000000 7.777500000000 0.920585004223
414 2 3.189000000000 7.777500000000 3.682340016891
415 2 3.189000000000 5.185000000000 1.841170008446
416 2 4.783500000000 5.185000000000 4.602925021114
417 1 7.972500000000 9.721875000000 0.920585004223
418 1 6.378000000000 9.721875000000 3.682340016891
419 1 6.378000000000 7.129375000000 1.841170008446
420 1 7.972500000000 7.129375000000 4.602925021114
421 2 7.972500000000 7.777500000000 0.920585004223
422 2 6.378000000000 7.777500000000 3.682340016891
423 2 6.378000000000 5.185000000000 1.841170008446
424 2 7.972500000000 5.185000000000 4.602925021114
425 1 11.161500000000 9.721875000000 0.920585004223
426 1 9.567000000000 9.721875000000 3.682340016891
427 1 9.567000000000 7.129375000000 1.841170008446
428 1 11.161500000000 7.129375000000 4.602925021114
429 2 11.161500000000 7.777500000000 0.920585004223
430 2 9.567000000000 7.777500000000 3.682340016891
431 2 9.567000000000 5.185000000000 1.841170008446
432 2 11.161500000000 5.185000000000 4.602925021114
433 1 14.350500000000 9.721875000000 0.920585004223
434 1 12.756000000000 9.721875000000 3.682340016891
435 1 12.756000000000 7.129375000000 1.841170008446
436 1 14.350500000000 7.129375000000 4.602925021114
437 2 14.350500000000 7.777500000000 0.920585004223
438 2 12.756000000000 7.777500000000 3.682340016891
439 2 12.756000000000 5.185000000000 1.841170008446
440 2 14.350500000000 5.185000000000 4.602925021114
441 1 17.539500000000 9.721875000000 0.920585004223
442 1 15.945000000000 9.721875000000 3.682340016891
443 1 15.945000000000 7.129375000000 1.841170008446
444 1 17.539500000000 7.129375000000 4.602925021114
445 2 17.539500000000 7.777500000000 0.920585004223
446 2 15.945000000000 7.777500000000 3.682340016891
447 2 15.945000000000 5.185000000000 1.841170008446
448 2 17.539500000000 5.185000000000 4.602925021114
449 1 20.728500000000 9.721875000000 0.920585004223
450 1 19.134000000000 9.721875000000 3.682340016891
451 1 19.134000000000 7.129375000000 1.841170008446
452 1 20.728500000000 7.129375000000 4.602925021114
453 2 20.728500000000 7.777500000000 0.920585004223
454 2 19.134000000000 7.777500000000 3.682340016891
455 2 19.134000000000 5.185000000000 1.841170008446
456 2 20.728500000000 5.185000000000 4.602925021114
457 1 23.917500000000 9.721875000000 0.920585004223
458 1 22.323000000000 9.721875000000 3.682340016891
459 1 22.323000000000 7.129375000000 1.841170008446
460 1 23.917500000000 7.129375000000 4.602925021114
461 2 23.917500000000 7.777500000000 0.920585004223
462 2 22.323000000000 7.777500000000 3.682340016891
463 2 22.323000000000 5.185000000000 1.841170008446
464 2 23.917500000000 5.185000000000 4.602925021114
465 1 27.106500000000 9.721875000000 0.920585004223
466 1 25.512000000000 9.721875000000 3.682340016891
467 1 25.512000000000 7.129375000000 1.841170008446
468 1 27.106500000000 7.129375000000 4.602925021114
469 2 27.106500000000 7.777500000000 0.920585004223
470 2 25.512000000000 7.777500000000 3.682340016891
471 2 25.512000000000 5.185000000000 1.841170008446
472 2 27.106500000000 5.185000000000 4.602925021114
473 1 30.295500000000 9.721875000000 0.920585004223
474 1 28.701000000000 9.721875000000 3.682340016891
475 1 28.701000000000 7.129375000000 1.841170008446
476 1 30.295500000000 7.129375000000 4.602925021114
477 2 30.295500000000 7.777500000000 0.920585004223
478 2 28.701000000000 7.777500000000 3.682340016891
479 2 28.701000000000 5.185000000000 1.841170008446
480 2 30.295500000000 5.185000000000 4.602925021114
481 1 1.594500000000 9.721875000000 6.444095029560
482 1 0.000000000000 9.721875000000 9.205850042229
483 1 0.000000000000 7.129375000000 7.364680033783
484 1 1.594500000000 7.129375000000 10.126435046451
485 2 1.594500000000 7.777500000000 6.444095029560
486 2 0.000000000000 7.777500000000 9.205850042229
487 2 0.000000000000 5.185000000000 7.364680033783
488 2 1.594500000000 5.185000000000 10.126435046451
489 1 4.783500000000 9.721875000000 6.444095029560
490 1 3.189000000000 9.721875000000 9.205850042229
491 1 3.189000000000 7.129375000000 7.364680033783
492 1 4.783500000000 7.129375000000 10.126435046451
493 2 4.783500000000 7.777500000000 6.444095029560
494 2 3.189000000000 7.777500000000 9.205850042229
495 2 3.189000000000 5.185000000000 7.364680033783
496 2 4.783500000000 5.185000000000 10.126435046451
497 1 7.972500000000 9.721875000000 6.444095029560
498 1 6.378000000000 9.721875000000 9.205850042229
499 1 6.378000000000 7.129375000000 7.364680033783
500 1 7.972500000000 7.129375000000 10.126435046451
501 2 7.972500000000 7.777500000000 6.444095029560
502 2 6.378000000000 7.777500000000 9.205850042229
503 2 6.378000000000 5.185000000000 7.364680033783
504 2 7.972500000000 5.185000000000 10.126435046451
505 1 11.161500000000 9.721875000000 6.444095029560
506 1 9.567000000000 9.721875000000 9.205850042229
507 1 9.567000000000 7.129375000000 7.364680033783
508 1 11.161500000000 7.129375000000 10.126435046451
509 2 11.161500000000 7.777500000000 6.444095029560
510 2 9.567000000000 7.777500000000 9.205850042229
511 2 9.567000000000 5.185000000000 7.364680033783
512 2 11.161500000000 5.185000000000 10.126435046451
513 1 14.350500000000 9.721875000000 6.444095029560
514 1 12.756000000000 9.721875000000 9.205850042229
515 1 12.756000000000 7.129375000000 7.364680033783
516 1 14.350500000000 7.129375000000 10.126435046451
517 2 14.350500000000 7.777500000000 6.444095029560
518 2 12.756000000000 7.777500000000 9.205850042229
519 2 12.756000000000 5.185000000000 7.364680033783
520 2 14.350500000000 5.185000000000 10.126435046451
521 1 17.539500000000 9.721875000000 6.444095029560
522 1 15.945000000000 9.721875000000 9.205850042229
523 1 15.945000000000 7.129375000000 7.364680033783
524 1 17.539500000000 7.129375000000 10.126435046451
525 2 17.539500000000 7.777500000000 6.444095029560
526 2 15.945000000000 7.777500000000 9.205850042229
527 2 15.945000000000 5.185000000000 7.364680033783
528 2 17.539500000000 5.185000000000 10.126435046451
529 1 20.728500000000 9.721875000000 6.444095029560
530 1 19.134000000000 9.721875000000 9.205850042229
531 1 19.134000000000 7.129375000000 7.364680033783
532 1 20.728500000000 7.129375000000 10.126435046451
533 2 20.728500000000 7.777500000000 6.444095029560
534 2 19.134000000000 7.777500000000 9.205850042229
535 2 19.134000000000 5.185000000000 7.364680033783
536 2 20.728500000000 5.185000000000 10.126435046451
537 1 23.917500000000 9.721875000000 6.444095029560
538 1 22.323000000000 9.721875000000 9.205850042229
539 1 22.323000000000 7.129375000000 7.364680033783
540 1 23.917500000000 7.129375000000 10.126435046451
541 2 23.917500000000 7.777500000000 6.444095029560
542 2 22.323000000000 7.777500000000 9.205850042229
543 2 22.323000000000 5.185000000000 7.364680033783
544 2 23.917500000000 5.185000000000 10.126435046451
545 1 27.106500000000 9.721875000000 6.444095029560
546 1 25.512000000000 9.721875000000 9.205850042229
547 1 25.512000000000 7.129375000000 7.364680033783
548 1 27.106500000000 7.129375000000 10.126435046451
549 2 27.106500000000 7.777500000000 6.444095029560
550 2 25.512000000000 7.777500000000 9.205850042229
551 2 25.512000000000 5.185000000000 7.364680033783
552 2 27.106500000000 5.185000000000 10.126435046451
553 1 30.295500000000 9.721875000000 6.444095029560
554 1 28.701000000000 9.721875000000 9.205850042229
555 1 28.701000000000 7.129375000000 7.364680033783
556 1 30.295500000000 7.129375000000 10.126435046451
557 2 30.295500000000 7.777500000000 6.444095029560
558 2 28.701000000000 7.777500000000 9.205850042229
559 2 28.701000000000 5.185000000000 7.364680033783
560 2 30.295500000000 5.185000000000 10.126435046451
561 1 1.594500000000 9.721875000000 11.967605054897
562 1 0.000000000000 9.721875000000 14.729360067566
563 1 0.000000000000 7.129375000000 12.888190059120
564 1 1.594500000000 7.129375000000 15.649945071789
565 2 1.594500000000 7.777500000000 11.967605054897
566 2 0.000000000000 7.777500000000 14.729360067566
567 2 0.000000000000 5.185000000000 12.888190059120
568 2 1.594500000000 5.185000000000 15.649945071789
569 1 4.783500000000 9.721875000000 11.967605054897
570 1 3.189000000000 9.721875000000 14.729360067566
571 1 3.189000000000 7.129375000000 12.888190059120
572 1 4.783500000000 7.129375000000 15.649945071789
573 2 4.783500000000 7.777500000000 11.967605054897
574 2 3.189000000000 7.777500000000 14.729360067566
575 2 3.189000000000 5.185000000000 12.888190059120
576 2 4.783500000000 5.185000000000 15.649945071789
577 1 7.972500000000 9.721875000000 11.967605054897
578 1 6.378000000000 9.721875000000 14.729360067566
579 1 6.378000000000 7.129375000000 12.888190059120
580 1 7.972500000000 7.129375000000 15.649945071789
581 2 7.972500000000 7.777500000000 11.967605054897
582 2 6.378000000000 7.777500000000 14.729360067566
583 2 6.378000000000 5.185000000000 12.888190059120
584 2 7.972500000000 5.185000000000 15.649945071789
585 1 11.161500000000 9.721875000000 11.967605054897
586 1 9.567000000000 9.721875000000 14.729360067566
587 1 9.567000000000 7.129375000000 12.888190059120
588 1 11.161500000000 7.129375000000 15.649945071789
589 2 11.161500000000 7.777500000000 11.967605054897
590 2 9.567000000000 7.777500000000 14.729360067566
591 2 9.567000000000 5.185000000000 12.888190059120
592 2 11.161500000000 5.185000000000 15.649945071789
593 1 14.350500000000 9.721875000000 11.967605054897
594 1 12.756000000000 9.721875000000 14.729360067566
595 1 12.756000000000 7.129375000000 12.888190059120
596 1 14.350500000000 7.129375000000 15.649945071789
597 2 14.350500000000 7.777500000000 11.967605054897
598 2 12.756000000000 7.777500000000 14.729360067566
599 2 12.756000000000 5.185000000000 12.888190059120
600 2 14.350500000000 5.185000000000 15.649945071789
601 1 17.539500000000 9.721875000000 11.967605054897
602 1 15.945000000000 9.721875000000 14.729360067566
603 1 15.945000000000 7.129375000000 12.888190059120
604 1 17.539500000000 7.129375000000 15.649945071789
605 2 17.539500000000 7.777500000000 11.967605054897
606 2 15.945000000000 7.777500000000 14.729360067566
607 2 15.945000000000 5.185000000000 12.888190059120
608 2 17.539500000000 5.185000000000 15.649945071789
609 1 20.728500000000 9.721875000000 11.967605054897
610 1 19.134000000000 9.721875000000 14.729360067566
611 1 19.134000000000 7.129375000000 12.888190059120
612 1 20.728500000000 7.129375000000 15.649945071789
613 2 20.728500000000 7.777500000000 11.967605054897
614 2 19.134000000000 7.777500000000 14.729360067566
615 2 19.134000000000 5.185000000000 12.888190059120
616 2 20.728500000000 5.185000000000 15.649945071789
617 1 23.917500000000 9.721875000000 11.967605054897
618 1 22.323000000000 9.721875000000 14.729360067566
619 1 22.323000000000 7.129375000000 12.888190059120
620 1 23.917500000000 7.129375000000 15.649945071789
621 2 23.917500000000 7.777500000000 11.967605054897
622 2 22.323000000000 7.777500000000 14.729360067566
623 2 22.323000000000 5.185000000000 12.888190059120
624 2 23.917500000000 5.185000000000 15.649945071789
625 1 27.106500000000 9.721875000000 11.967605054897
626 1 25.512000000000 9.721875000000 14.729360067566
627 1 25.512000000000 7.129375000000 12.888190059120
628 1 27.106500000000 7.129375000000 15.649945071789
629 2 27.106500000000 7.777500000000 11.967605054897
630 2 25.512000000000 7.777500000000 14.729360067566
631 2 25.512000000000 5.185000000000 12.888190059120
632 2 27.106500000000 5.185000000000 15.649945071789
633 1 30.295500000000 9.721875000000 11.967605054897
634 1 28.701000000000 9.721875000000 14.729360067566
635 1 28.701000000000 7.129375000000 12.888190059120
636 1 30.295500000000 7.129375000000 15.649945071789
637 2 30.295500000000 7.777500000000 11.967605054897
638 2 28.701000000000 7.777500000000 14.729360067566
639 2 28.701000000000 5.185000000000 12.888190059120
640 2 30.295500000000 5.185000000000 15.649945071789
641 1 1.594500000000 9.721875000000 17.491115080234
642 1 0.000000000000 9.721875000000 20.252870092903
643 1 0.000000000000 7.129375000000 18.411700084457
644 1 1.594500000000 7.129375000000 21.173455097126
645 2 1.594500000000 7.777500000000 17.491115080234
646 2 0.000000000000 7.777500000000 20.252870092903
647 2 0.000000000000 5.185000000000 18.411700084457
648 2 1.594500000000 5.185000000000 21.173455097126
649 1 4.783500000000 9.721875000000 17.491115080234
650 1 3.189000000000 9.721875000000 20.252870092903
651 1 3.189000000000 7.129375000000 18.411700084457
652 1 4.783500000000 7.129375000000 21.173455097126
653 2 4.783500000000 7.777500000000 17.491115080234
654 2 3.189000000000 7.777500000000 20.252870092903
655 2 3.189000000000 5.185000000000 18.411700084457
656 2 4.783500000000 5.185000000000 21.173455097126
657 1 7.972500000000 9.721875000000 17.491115080234
658 1 6.378000000000 9.721875000000 20.252870092903
659 1 6.378000000000 7.129375000000 18.411700084457
660 1 7.972500000000 7.129375000000 21.173455097126
661 2 7.972500000000 7.777500000000 17.491115080234
662 2 6.378000000000 7.777500000000 20.252870092903
663 2 6.378000000000 5.185000000000 18.411700084457
664 2 7.972500000000 5.185000000000 21.173455097126
665 1 11.161500000000 9.721875000000 17.491115080234
666 1 9.567000000000 9.721875000000 20.252870092903
667 1 9.567000000000 7.129375000000 18.411700084457
668 1 11.161500000000 7.129375000000 21.173455097126
669 2 11.161500000000 7.777500000000 17.491115080234
670 2 9.567000000000 7.777500000000 20.252870092903
671 2 9.567000000000 5.185000000000 18.411700084457
672 2 11.161500000000 5.185000000000 21.173455097126
673 1 14.350500000000 9.721875000000 17.491115080234
674 1 12.756000000000 9.721875000000 20.252870092903
675 1 12.756000000000 7.129375000000 18.411700084457
676 1 14.350500000000 7.129375000000 21.173455097126
677 2 14.350500000000 7.777500000000 17.491115080234
678 2 12.756000000000 7.777500000000 20.252870092903
679 2 12.756000000000 5.185000000000 18.411700084457
680 2 14.350500000000 5.185000000000 21.173455097126
681 1 17.539500000000 9.721875000000 17.491115080234
682 1 15.945000000000 9.721875000000 20.252870092903
683 1 15.945000000000 7.129375000000 18.411700084457
684 1 17.539500000000 7.129375000000 21.173455097126
685 2 17.539500000000 7.777500000000 17.491115080234
686 2 15.945000000000 7.777500000000 20.252870092903
687 2 15.945000000000 5.185000000000 18.411700084457
688 2 17.539500000000 5.185000000000 21.173455097126
689 1 20.728500000000 9.721875000000 17.491115080234
690 1 19.134000000000 9.721875000000 20.252870092903
691 1 19.134000000000 7.129375000000 18.411700084457
692 1 20.728500000000 7.129375000000 21.173455097126
693 2 20.728500000000 7.777500000000 17.491115080234
694 2 19.134000000000 7.777500000000 20.252870092903
695 2 19.134000000000 5.185000000000 18.411700084457
696 2 20.728500000000 5.185000000000 21.173455097126
697 1 23.917500000000 9.721875000000 17.491115080234
698 1 22.323000000000 9.721875000000 20.252870092903
699 1 22.323000000000 7.129375000000 18.411700084457
700 1 23.917500000000 7.129375000000 21.173455097126
701 2 23.917500000000 7.777500000000 17.491115080234
702 2 22.323000000000 7.777500000000 20.252870092903
703 2 22.323000000000 5.185000000000 18.411700084457
704 2 23.917500000000 5.185000000000 21.173455097126
705 1 27.106500000000 9.721875000000 17.491115080234
706 1 25.512000000000 9.721875000000 20.252870092903
707 1 25.512000000000 7.129375000000 18.411700084457
708 1 27.106500000000 7.129375000000 21.173455097126
709 2 27.106500000000 7.777500000000 17.491115080234
710 2 25.512000000000 7.777500000000 20.252870092903
711 2 25.512000000000 5.185000000000 18.411700084457
712 2 27.106500000000 5.185000000000 21.173455097126
713 1 30.295500000000 9.721875000000 17.491115080234
714 1 28.701000000000 9.721875000000 20.252870092903
715 1 28.701000000000 7.129375000000 18.411700084457
716 1 30.295500000000 7.129375000000 21.173455097126
717 2 30.295500000000 7.777500000000 17.491115080234
718 2 28.701000000000 7.777500000000 20.252870092903
719 2 28.701000000000 5.185000000000 18.411700084457
720 2 30.295500000000 5.185000000000 21.173455097126
721 1 1.594500000000 9.721875000000 23.014625105571
722 1 0.000000000000 9.721875000000 25.776380118240
723 1 0.000000000000 7.129375000000 23.935210109794
724 1 1.594500000000 7.129375000000 26.696965122463
725 2 1.594500000000 7.777500000000 23.014625105571
726 2 0.000000000000 7.777500000000 25.776380118240
727 2 0.000000000000 5.185000000000 23.935210109794
728 2 1.594500000000 5.185000000000 26.696965122463
729 1 4.783500000000 9.721875000000 23.014625105571
730 1 3.189000000000 9.721875000000 25.776380118240
731 1 3.189000000000 7.129375000000 23.935210109794
732 1 4.783500000000 7.129375000000 26.696965122463
733 2 4.783500000000 7.777500000000 23.014625105571
734 2 3.189000000000 7.777500000000 25.776380118240
735 2 3.189000000000 5.185000000000 23.935210109794
736 2 4.783500000000 5.185000000000 26.696965122463
737 1 7.972500000000 9.721875000000 23.014625105571
738 1 6.378000000000 9.721875000000 25.776380118240
739 1 6.378000000000 7.129375000000 23.935210109794
740 1 7.972500000000 7.129375000000 26.696965122463
741 2 7.972500000000 7.777500000000 23.014625105571
742 2 6.378000000000 7.777500000000 25.776380118240
743 2 6.378000000000 5.185000000000 23.935210109794
744 2 7.972500000000 5.185000000000 26.696965122463
745 1 11.161500000000 9.721875000000 23.014625105571
746 1 9.567000000000 9.721875000000 25.776380118240
747 1 9.567000000000 7.129375000000 23.935210109794
748 1 11.161500000000 7.129375000000 26.696965122463
749 2 11.161500000000 7.777500000000 23.014625105571
750 2 9.567000000000 7.777500000000 25.776380118240
751 2 9.567000000000 5.185000000000 23.935210109794
752 2 11.161500000000 5.185000000000 26.696965122463
753 1 14.350500000000 9.721875000000 23.014625105571
754 1 12.756000000000 9.721875000000 25.776380118240
755 1 12.756000000000 7.129375000000 23.935210109794
756 1 14.350500000000 7.129375000000 26.696965122463
757 2 14.350500000000 7.777500000000 23.014625105571
758 2 12.756000000000 7.777500000000 25.776380118240
759 2 12.756000000000 5.185000000000 23.935210109794
760 2 14.350500000000 5.185000000000 26.696965122463
761 1 17.539500000000 9.721875000000 23.014625105571
762 1 15.945000000000 9.721875000000 25.776380118240
763 1 15.945000000000 7.129375000000 23.935210109794
764 1 17.539500000000 7.129375000000 26.696965122463
765 2 17.539500000000 7.777500000000 23.014625105571
766 2 15.945000000000 7.777500000000 25.776380118240
767 2 15.945000000000 5.185000000000 23.935210109794
768 2 17.539500000000 5.185000000000 26.696965122463
769 1 20.728500000000 9.721875000000 23.014625105571
770 1 19.134000000000 9.721875000000 25.776380118240
771 1 19.134000000000 7.129375000000 23.935210109794
772 1 20.728500000000 7.129375000000 26.696965122463
773 2 20.728500000000 7.777500000000 23.014625105571
774 2 19.134000000000 7.777500000000 25.776380118240
775 2 19.134000000000 5.185000000000 23.935210109794
776 2 20.728500000000 5.185000000000 26.696965122463
777 1 23.917500000000 9.721875000000 23.014625105571
778 1 22.323000000000 9.721875000000 25.776380118240
779 1 22.323000000000 7.129375000000 23.935210109794
780 1 23.917500000000 7.129375000000 26.696965122463
781 2 23.917500000000 7.777500000000 23.014625105571
782 2 22.323000000000 7.777500000000 25.776380118240
783 2 22.323000000000 5.185000000000 23.935210109794
784 2 23.917500000000 5.185000000000 26.696965122463
785 1 27.106500000000 9.721875000000 23.014625105571
786 1 25.512000000000 9.721875000000 25.776380118240
787 1 25.512000000000 7.129375000000 23.935210109794
788 1 27.106500000000 7.129375000000 26.696965122463
789 2 27.106500000000 7.777500000000 23.014625105571
790 2 25.512000000000 7.777500000000 25.776380118240
791 2 25.512000000000 5.185000000000 23.935210109794
792 2 27.106500000000 5.185000000000 26.696965122463
793 1 30.295500000000 9.721875000000 23.014625105571
794 1 28.701000000000 9.721875000000 25.776380118240
795 1 28.701000000000 7.129375000000 23.935210109794
796 1 30.295500000000 7.129375000000 26.696965122463
797 2 30.295500000000 7.777500000000 23.014625105571
798 2 28.701000000000 7.777500000000 25.776380118240
799 2 28.701000000000 5.185000000000 23.935210109794
800 2 30.295500000000 5.185000000000 26.696965122463
801 1 1.594500000000 14.906875000000 0.920585004223
802 1 0.000000000000 14.906875000000 3.682340016891
803 1 0.000000000000 12.314375000000 1.841170008446
804 1 1.594500000000 12.314375000000 4.602925021114
805 2 1.594500000000 12.962500000000 0.920585004223
806 2 0.000000000000 12.962500000000 3.682340016891
807 2 0.000000000000 10.370000000000 1.841170008446
808 2 1.594500000000 10.370000000000 4.602925021114
809 1 4.783500000000 14.906875000000 0.920585004223
810 1 3.189000000000 14.906875000000 3.682340016891
811 1 3.189000000000 12.314375000000 1.841170008446
812 1 4.783500000000 12.314375000000 4.602925021114
813 2 4.783500000000 12.962500000000 0.920585004223
814 2 3.189000000000 12.962500000000 3.682340016891
815 2 3.189000000000 10.370000000000 1.841170008446
816 2 4.783500000000 10.370000000000 4.602925021114
817 1 7.972500000000 14.906875000000 0.920585004223
818 1 6.378000000000 14.906875000000 3.682340016891
819 1 6.378000000000 12.314375000000 1.841170008446
820 1 7.972500000000 12.314375000000 4.602925021114
821 2 7.972500000000 12.962500000000 0.920585004223
822 2 6.378000000000 12.962500000000 3.682340016891
823 2 6.378000000000 10.370000000000 1.841170008446
824 2 7.972500000000 10.370000000000 4.602925021114
825 1 11.161500000000 14.906875000000 0.920585004223
826 1 9.567000000000 14.906875000000 3.682340016891
827 1 9.567000000000 12.314375000000 1.841170008446
828 1 11.161500000000 12.314375000000 4.602925021114
829 2 11.161500000000 12.962500000000 0.920585004223
830 2 9.567000000000 12.962500000000 3.682340016891
831 2 9.567000000000 10.370000000000 1.841170008446
832 2 11.161500000000 10.370000000000 4.602925021114
833 1 14.350500000000 14.906875000000 0.920585004223
834 1 12.756000000000 14.906875000000 3.682340016891
835 1 12.756000000000 12.314375000000 1.841170008446
836 1 14.350500000000 12.314375000000 4.602925021114
837 2 14.350500000000 12.962500000000 0.920585004223
838 2 12.756000000000 12.962500000000 3.682340016891
839 2 12.756000000000 10.370000000000 1.841170008446
840 2 14.350500000000 10.370000000000 4.602925021114
841 1 17.539500000000 14.906875000000 0.920585004223
842 1 15.945000000000 14.906875000000 3.682340016891
843 1 15.945000000000 12.314375000000 1.841170008446
844 1 17.539500000000 12.314375000000 4.602925021114
845 2 17.539500000000 12.962500000000 0.920585004223
846 2 15.945000000000 12.962500000000 3.682340016891
847 2 15.945000000000 10.370000000000 1.841170008446
848 2 17.539500000000 10.370000000000 4.602925021114
849 1 20.728500000000 14.906875000000 0.920585004223
850 1 19.134000000000 14.906875000000 3.682340016891
851 1 19.134000000000 12.314375000000 1.841170008446
852 1 20.728500000000 12.314375000000 4.602925021114
853 2 20.728500000000 12.962500000000 0.920585004223
854 2 19.134000000000 12.962500000000 3.682340016891
855 2 19.134000000000 10.370000000000 1.841170008446
856 2 20.728500000000 10.370000000000 4.602925021114
857 1 23.917500000000 14.906875000000 0.920585004223
858 1 22.323000000000 14.906875000000 3.682340016891
859 1 22.323000000000 12.314375000000 1.841170008446
860 1 23.917500000000 12.314375000000 4.602925021114
861 2 23.917500000000 12.962500000000 0.920585004223
862 2 22.323000000000 12.962500000000 3.682340016891
863 2 22.323000000000 10.370000000000 1.841170008446
864 2 23.917500000000 10.370000000000 4.602925021114
865 1 27.106500000000 14.906875000000 0.920585004223
866 1 25.512000000000 14.906875000000 3.682340016891
867 1 25.512000000000 12.314375000000 1.841170008446
868 1 27.106500000000 12.314375000000 4.602925021114
869 2 27.106500000000 12.962500000000 0.920585004223
870 2 25.512000000000 12.962500000000 3.682340016891
871 2 25.512000000000 10.370000000000 1.841170008446
872 2 27.106500000000 10.370000000000 4.602925021114
873 1 30.295500000000 14.906875000000 0.920585004223
874 1 28.701000000000 14.906875000000 3.682340016891
875 1 28.701000000000 12.314375000000 1.841170008446
876 1 30.295500000000 12.314375000000 4.602925021114
877 2 30.295500000000 12.962500000000 0.920585004223
878 2 28.701000000000 12.962500000000 3.682340016891
879 2 28.701000000000 10.370000000000 1.841170008446
880 2 30.295500000000 10.370000000000 4.602925021114
881 1 1.594500000000 14.906875000000 6.444095029560
882 1 0.000000000000 14.906875000000 9.205850042229
883 1 0.000000000000 12.314375000000 7.364680033783
884 1 1.594500000000 12.314375000000 10.126435046451
885 2 1.594500000000 12.962500000000 6.444095029560
886 2 0.000000000000 12.962500000000 9.205850042229
887 2 0.000000000000 10.370000000000 7.364680033783
888 2 1.594500000000 10.370000000000 10.126435046451
889 1 4.783500000000 14.906875000000 6.444095029560
890 1 3.189000000000 14.906875000000 9.205850042229
891 1 3.189000000000 12.314375000000 7.364680033783
892 1 4.783500000000 12.314375000000 10.126435046451
893 2 4.783500000000 12.962500000000 6.444095029560
894 2 3.189000000000 12.962500000000 9.205850042229
895 2 3.189000000000 10.370000000000 7.364680033783
896 2 4.783500000000 10.370000000000 10.126435046451
897 1 7.972500000000 14.906875000000 6.444095029560
898 1 6.378000000000 14.906875000000 9.205850042229
899 1 6.378000000000 12.314375000000 7.364680033783
900 1 7.972500000000 12.314375000000 10.126435046451
901 2 7.972500000000 12.962500000000 6.444095029560
902 2 6.378000000000 12.962500000000 9.205850042229
903 2 6.378000000000 10.370000000000 7.364680033783
904 2 7.972500000000 10.370000000000 10.126435046451
905 1 11.161500000000 14.906875000000 6.444095029560
906 1 9.567000000000 14.906875000000 9.205850042229
907 1 9.567000000000 12.314375000000 7.364680033783
908 1 11.161500000000 12.314375000000 10.126435046451
909 2 11.161500000000 12.962500000000 6.444095029560
910 2 9.567000000000 12.962500000000 9.205850042229
911 2 9.567000000000 10.370000000000 7.364680033783
912 2 11.161500000000 10.370000000000 10.126435046451
913 1 14.350500000000 14.906875000000 6.444095029560
914 1 12.756000000000 14.906875000000 9.205850042229
915 1 12.756000000000 12.314375000000 7.364680033783
916 1 14.350500000000 12.314375000000 10.126435046451
917 2 14.350500000000 12.962500000000 6.444095029560
918 2 12.756000000000 12.962500000000 9.205850042229
919 2 12.756000000000 10.370000000000 7.364680033783
920 2 14.350500000000 10.370000000000 10.126435046451
921 1 17.539500000000 14.906875000000 6.444095029560
922 1 15.945000000000 14.906875000000 9.205850042229
923 1 15.945000000000 12.314375000000 7.364680033783
924 1 17.539500000000 12.314375000000 10.126435046451
925 2 17.539500000000 12.962500000000 6.444095029560
926 2 15.945000000000 12.962500000000 9.205850042229
927 2 15.945000000000 10.370000000000 7.364680033783
928 2 17.539500000000 10.370000000000 10.126435046451
929 1 20.728500000000 14.906875000000 6.444095029560
930 1 19.134000000000 14.906875000000 9.205850042229
931 1 19.134000000000 12.314375000000 7.364680033783
932 1 20.728500000000 12.314375000000 10.126435046451
933 2 20.728500000000 12.962500000000 6.444095029560
934 2 19.134000000000 12.962500000000 9.205850042229
935 2 19.134000000000 10.370000000000 7.364680033783
936 2 20.728500000000 10.370000000000 10.126435046451
937 1 23.917500000000 14.906875000000 6.444095029560
938 1 22.323000000000 14.906875000000 9.205850042229
939 1 22.323000000000 12.314375000000 7.364680033783
940 1 23.917500000000 12.314375000000 10.126435046451
941 2 23.917500000000 12.962500000000 6.444095029560
942 2 22.323000000000 12.962500000000 9.205850042229
943 2 22.323000000000 10.370000000000 7.364680033783
944 2 23.917500000000 10.370000000000 10.126435046451
945 1 27.106500000000 14.906875000000 6.444095029560
946 1 25.512000000000 14.906875000000 9.205850042229
947 1 25.512000000000 12.314375000000 7.364680033783
948 1 27.106500000000 12.314375000000 10.126435046451
949 2 27.106500000000 12.962500000000 6.444095029560
950 2 25.512000000000 12.962500000000 9.205850042229
951 2 25.512000000000 10.370000000000 7.364680033783
952 2 27.106500000000 10.370000000000 10.126435046451
953 1 30.295500000000 14.906875000000 6.444095029560
954 1 28.701000000000 14.906875000000 9.205850042229
955 1 28.701000000000 12.314375000000 7.364680033783
956 1 30.295500000000 12.314375000000 10.126435046451
957 2 30.295500000000 12.962500000000 6.444095029560
958 2 28.701000000000 12.962500000000 9.205850042229
959 2 28.701000000000 10.370000000000 7.364680033783
960 2 30.295500000000 10.370000000000 10.126435046451
961 1 1.594500000000 14.906875000000 11.967605054897
962 1 0.000000000000 14.906875000000 14.729360067566
963 1 0.000000000000 12.314375000000 12.888190059120
964 1 1.594500000000 12.314375000000 15.649945071789
965 2 1.594500000000 12.962500000000 11.967605054897
966 2 0.000000000000 12.962500000000 14.729360067566
967 2 0.000000000000 10.370000000000 12.888190059120
968 2 1.594500000000 10.370000000000 15.649945071789
969 1 4.783500000000 14.906875000000 11.967605054897
970 1 3.189000000000 14.906875000000 14.729360067566
971 1 3.189000000000 12.314375000000 12.888190059120
972 1 4.783500000000 12.314375000000 15.649945071789
973 2 4.783500000000 12.962500000000 11.967605054897
974 2 3.189000000000 12.962500000000 14.729360067566
975 2 3.189000000000 10.370000000000 12.888190059120
976 2 4.783500000000 10.370000000000 15.649945071789
977 1 7.972500000000 14.906875000000 11.967605054897
978 1 6.378000000000 14.906875000000 14.729360067566
979 1 6.378000000000 12.314375000000 12.888190059120
980 1 7.972500000000 12.314375000000 15.649945071789
981 2 7.972500000000 12.962500000000 11.967605054897
982 2 6.378000000000 12.962500000000 14.729360067566
983 2 6.378000000000 10.370000000000 12.888190059120
984 2 7.972500000000 10.370000000000 15.649945071789
985 1 11.161500000000 14.906875000000 11.967605054897
986 1 9.567000000000 14.906875000000 14.729360067566
987 1 9.567000000000 12.314375000000 12.888190059120
988 1 11.161500000000 12.314375000000 15.649945071789
989 2 11.161500000000 12.962500000000 11.967605054897
990 2 9.567000000000 12.962500000000 14.729360067566
991 2 9.567000000000 10.370000000000 12.888190059120
992 2 11.161500000000 10.370000000000 15.649945071789
993 1 14.350500000000 14.906875000000 11.967605054897
994 1 12.756000000000 14.906875000000 14.729360067566
995 1 12.756000000000 12.314375000000 12.888190059120
996 1 14.350500000000 12.314375000000 15.649945071789
997 2 14.350500000000 12.962500000000 11.967605054897
998 2 12.756000000000 12.962500000000 14.729360067566
999 2 12.756000000000 10.370000000000 12.888190059120
1000 2 14.350500000000 10.370000000000 15.649945071789
1001 1 17.539500000000 14.906875000000 11.967605054897
1002 1 15.945000000000 14.906875000000 14.729360067566
1003 1 15.945000000000 12.314375000000 12.888190059120
1004 1 17.539500000000 12.314375000000 15.649945071789
1005 2 17.539500000000 12.962500000000 11.967605054897
1006 2 15.945000000000 12.962500000000 14.729360067566
1007 2 15.945000000000 10.370000000000 12.888190059120
1008 2 17.539500000000 10.370000000000 15.649945071789
1009 1 20.728500000000 14.906875000000 11.967605054897
1010 1 19.134000000000 14.906875000000 14.729360067566
1011 1 19.134000000000 12.314375000000 12.888190059120
1012 1 20.728500000000 12.314375000000 15.649945071789
1013 2 20.728500000000 12.962500000000 11.967605054897
1014 2 19.134000000000 12.962500000000 14.729360067566
1015 2 19.134000000000 10.370000000000 12.888190059120
1016 2 20.728500000000 10.370000000000 15.649945071789
1017 1 23.917500000000 14.906875000000 11.967605054897
1018 1 22.323000000000 14.906875000000 14.729360067566
1019 1 22.323000000000 12.314375000000 12.888190059120
1020 1 23.917500000000 12.314375000000 15.649945071789
1021 2 23.917500000000 12.962500000000 11.967605054897
1022 2 22.323000000000 12.962500000000 14.729360067566
1023 2 22.323000000000 10.370000000000 12.888190059120
1024 2 23.917500000000 10.370000000000 15.649945071789
1025 1 27.106500000000 14.906875000000 11.967605054897
1026 1 25.512000000000 14.906875000000 14.729360067566
1027 1 25.512000000000 12.314375000000 12.888190059120
1028 1 27.106500000000 12.314375000000 15.649945071789
1029 2 27.106500000000 12.962500000000 11.967605054897
1030 2 25.512000000000 12.962500000000 14.729360067566
1031 2 25.512000000000 10.370000000000 12.888190059120
1032 2 27.106500000000 10.370000000000 15.649945071789
1033 1 30.295500000000 14.906875000000 11.967605054897
1034 1 28.701000000000 14.906875000000 14.729360067566
1035 1 28.701000000000 12.314375000000 12.888190059120
1036 1 30.295500000000 12.314375000000 15.649945071789
1037 2 30.295500000000 12.962500000000 11.967605054897
1038 2 28.701000000000 12.962500000000 14.729360067566
1039 2 28.701000000000 10.370000000000 12.888190059120
1040 2 30.295500000000 10.370000000000 15.649945071789
1041 1 1.594500000000 14.906875000000 17.491115080234
1042 1 0.000000000000 14.906875000000 20.252870092903
1043 1 0.000000000000 12.314375000000 18.411700084457
1044 1 1.594500000000 12.314375000000 21.173455097126
1045 2 1.594500000000 12.962500000000 17.491115080234
1046 2 0.000000000000 12.962500000000 20.252870092903
1047 2 0.000000000000 10.370000000000 18.411700084457
1048 2 1.594500000000 10.370000000000 21.173455097126
1049 1 4.783500000000 14.906875000000 17.491115080234
1050 1 3.189000000000 14.906875000000 20.252870092903
1051 1 3.189000000000 12.314375000000 18.411700084457
1052 1 4.783500000000 12.314375000000 21.173455097126
1053 2 4.783500000000 12.962500000000 17.491115080234
1054 2 3.189000000000 12.962500000000 20.252870092903
1055 2 3.189000000000 10.370000000000 18.411700084457
1056 2 4.783500000000 10.370000000000 21.173455097126
1057 1 7.972500000000 14.906875000000 17.491115080234
1058 1 6.378000000000 14.906875000000 20.252870092903
1059 1 6.378000000000 12.314375000000 18.411700084457
1060 1 7.972500000000 12.314375000000 21.173455097126
1061 2 7.972500000000 12.962500000000 17.491115080234
1062 2 6.378000000000 12.962500000000 20.252870092903
1063 2 6.378000000000 10.370000000000 18.411700084457
1064 2 7.972500000000 10.370000000000 21.173455097126
1065 1 11.161500000000 14.906875000000 17.491115080234
1066 1 9.567000000000 14.906875000000 20.252870092903
1067 1 9.567000000000 12.314375000000 18.411700084457
1068 1 11.161500000000 12.314375000000 21.173455097126
1069 2 11.161500000000 12.962500000000 17.491115080234
1070 2 9.567000000000 12.962500000000 20.252870092903
1071 2 9.567000000000 10.370000000000 18.411700084457
1072 2 11.161500000000 10.370000000000 21.173455097126
1073 1 14.350500000000 14.906875000000 17.491115080234
1074 1 12.756000000000 14.906875000000 20.252870092903
1075 1 12.756000000000 12.314375000000 18.411700084457
1076 1 14.350500000000 12.314375000000 21.173455097126
1077 2 14.350500000000 12.962500000000 17.491115080234
1078 2 12.756000000000 12.962500000000 20.252870092903
1079 2 12.756000000000 10.370000000000 18.411700084457
1080 2 14.350500000000 10.370000000000 21.173455097126
1081 1 17.539500000000 14.906875000000 17.491115080234
1082 1 15.945000000000 14.906875000000 20.252870092903
1083 1 15.945000000000 12.314375000000 18.411700084457
1084 1 17.539500000000 12.314375000000 21.173455097126
1085 2 17.539500000000 12.962500000000 17.491115080234
1086 2 15.945000000000 12.962500000000 20.252870092903
1087 2 15.945000000000 10.370000000000 18.411700084457
1088 2 17.539500000000 10.370000000000 21.173455097126
1089 1 20.728500000000 14.906875000000 17.491115080234
1090 1 19.134000000000 14.906875000000 20.252870092903
1091 1 19.134000000000 12.314375000000 18.411700084457
1092 1 20.728500000000 12.314375000000 21.173455097126
1093 2 20.728500000000 12.962500000000 17.491115080234
1094 2 19.134000000000 12.962500000000 20.252870092903
1095 2 19.134000000000 10.370000000000 18.411700084457
1096 2 20.728500000000 10.370000000000 21.173455097126
1097 1 23.917500000000 14.906875000000 17.491115080234
1098 1 22.323000000000 14.906875000000 20.252870092903
1099 1 22.323000000000 12.314375000000 18.411700084457
1100 1 23.917500000000 12.314375000000 21.173455097126
1101 2 23.917500000000 12.962500000000 17.491115080234
1102 2 22.323000000000 12.962500000000 20.252870092903
1103 2 22.323000000000 10.370000000000 18.411700084457
1104 2 23.917500000000 10.370000000000 21.173455097126
1105 1 27.106500000000 14.906875000000 17.491115080234
1106 1 25.512000000000 14.906875000000 20.252870092903
1107 1 25.512000000000 12.314375000000 18.411700084457
1108 1 27.106500000000 12.314375000000 21.173455097126
1109 2 27.106500000000 12.962500000000 17.491115080234
1110 2 25.512000000000 12.962500000000 20.252870092903
1111 2 25.512000000000 10.370000000000 18.411700084457
1112 2 27.106500000000 10.370000000000 21.173455097126
1113 1 30.295500000000 14.906875000000 17.491115080234
1114 1 28.701000000000 14.906875000000 20.252870092903
1115 1 28.701000000000 12.314375000000 18.411700084457
1116 1 30.295500000000 12.314375000000 21.173455097126
1117 2 30.295500000000 12.962500000000 17.491115080234
1118 2 28.701000000000 12.962500000000 20.252870092903
1119 2 28.701000000000 10.370000000000 18.411700084457
1120 2 30.295500000000 10.370000000000 21.173455097126
1121 1 1.594500000000 14.906875000000 23.014625105571
1122 1 0.000000000000 14.906875000000 25.776380118240
1123 1 0.000000000000 12.314375000000 23.935210109794
1124 1 1.594500000000 12.314375000000 26.696965122463
1125 2 1.594500000000 12.962500000000 23.014625105571
1126 2 0.000000000000 12.962500000000 25.776380118240
1127 2 0.000000000000 10.370000000000 23.935210109794
1128 2 1.594500000000 10.370000000000 26.696965122463
1129 1 4.783500000000 14.906875000000 23.014625105571
1130 1 3.189000000000 14.906875000000 25.776380118240
1131 1 3.189000000000 12.314375000000 23.935210109794
1132 1 4.783500000000 12.314375000000 26.696965122463
1133 2 4.783500000000 12.962500000000 23.014625105571
1134 2 3.189000000000 12.962500000000 25.776380118240
1135 2 3.189000000000 10.370000000000 23.935210109794
1136 2 4.783500000000 10.370000000000 26.696965122463
1137 1 7.972500000000 14.906875000000 23.014625105571
1138 1 6.378000000000 14.906875000000 25.776380118240
1139 1 6.378000000000 12.314375000000 23.935210109794
1140 1 7.972500000000 12.314375000000 26.696965122463
1141 2 7.972500000000 12.962500000000 23.014625105571
1142 2 6.378000000000 12.962500000000 25.776380118240
1143 2 6.378000000000 10.370000000000 23.935210109794
1144 2 7.972500000000 10.370000000000 26.696965122463
1145 1 11.161500000000 14.906875000000 23.014625105571
1146 1 9.567000000000 14.906875000000 25.776380118240
1147 1 9.567000000000 12.314375000000 23.935210109794
1148 1 11.161500000000 12.314375000000 26.696965122463
1149 2 11.161500000000 12.962500000000 23.014625105571
1150 2 9.567000000000 12.962500000000 25.776380118240
1151 2 9.567000000000 10.370000000000 23.935210109794
1152 2 11.161500000000 10.370000000000 26.696965122463
1153 1 14.350500000000 14.906875000000 23.014625105571
1154 1 12.756000000000 14.906875000000 25.776380118240
1155 1 12.756000000000 12.314375000000 23.935210109794
1156 1 14.350500000000 12.314375000000 26.696965122463
1157 2 14.350500000000 12.962500000000 23.014625105571
1158 2 12.756000000000 12.962500000000 25.776380118240
1159 2 12.756000000000 10.370000000000 23.935210109794
1160 2 14.350500000000 10.370000000000 26.696965122463
1161 1 17.539500000000 14.906875000000 23.014625105571
1162 1 15.945000000000 14.906875000000 25.776380118240
1163 1 15.945000000000 12.314375000000 23.935210109794
1164 1 17.539500000000 12.314375000000 26.696965122463
1165 2 17.539500000000 12.962500000000 23.014625105571
1166 2 15.945000000000 12.962500000000 25.776380118240
1167 2 15.945000000000 10.370000000000 23.935210109794
1168 2 17.539500000000 10.370000000000 26.696965122463
1169 1 20.728500000000 14.906875000000 23.014625105571
1170 1 19.134000000000 14.906875000000 25.776380118240
1171 1 19.134000000000 12.314375000000 23.935210109794
1172 1 20.728500000000 12.314375000000 26.696965122463
1173 2 20.728500000000 12.962500000000 23.014625105571
1174 2 19.134000000000 12.962500000000 25.776380118240
1175 2 19.134000000000 10.370000000000 23.935210109794
1176 2 20.728500000000 10.370000000000 26.696965122463
1177 1 23.917500000000 14.906875000000 23.014625105571
1178 1 22.323000000000 14.906875000000 25.776380118240
1179 1 22.323000000000 12.314375000000 23.935210109794
1180 1 23.917500000000 12.314375000000 26.696965122463
1181 2 23.917500000000 12.962500000000 23.014625105571
1182 2 22.323000000000 12.962500000000 25.776380118240
1183 2 22.323000000000 10.370000000000 23.935210109794
1184 2 23.917500000000 10.370000000000 26.696965122463
1185 1 27.106500000000 14.906875000000 23.014625105571
1186 1 25.512000000000 14.906875000000 25.776380118240
1187 1 25.512000000000 12.314375000000 23.935210109794
1188 1 27.106500000000 12.314375000000 26.696965122463
1189 2 27.106500000000 12.962500000000 23.014625105571
1190 2 25.512000000000 12.962500000000 25.776380118240
1191 2 25.512000000000 10.370000000000 23.935210109794
1192 2 27.106500000000 10.370000000000 26.696965122463
1193 1 30.295500000000 14.906875000000 23.014625105571
1194 1 28.701000000000 14.906875000000 25.776380118240
1195 1 28.701000000000 12.314375000000 23.935210109794
1196 1 30.295500000000 12.314375000000 26.696965122463
1197 2 30.295500000000 12.962500000000 23.014625105571
1198 2 28.701000000000 12.962500000000 25.776380118240
1199 2 28.701000000000 10.370000000000 23.935210109794
1200 2 30.295500000000 10.370000000000 26.696965122463
1201 1 1.594500000000 20.091875000000 0.920585004223
1202 1 0.000000000000 20.091875000000 3.682340016891
1203 1 0.000000000000 17.499375000000 1.841170008446
1204 1 1.594500000000 17.499375000000 4.602925021114
1205 2 1.594500000000 18.147500000000 0.920585004223
1206 2 0.000000000000 18.147500000000 3.682340016891
1207 2 0.000000000000 15.555000000000 1.841170008446
1208 2 1.594500000000 15.555000000000 4.602925021114
1209 1 4.783500000000 20.091875000000 0.920585004223
1210 1 3.189000000000 20.091875000000 3.682340016891
1211 1 3.189000000000 17.499375000000 1.841170008446
1212 1 4.783500000000 17.499375000000 4.602925021114
1213 2 4.783500000000 18.147500000000 0.920585004223
1214 2 3.189000000000 18.147500000000 3.682340016891
1215 2 3.189000000000 15.555000000000 1.841170008446
1216 2 4.783500000000 15.555000000000 4.602925021114
1217 1 7.972500000000 20.091875000000 0.920585004223
1218 1 6.378000000000 20.091875000000 3.682340016891
1219 1 6.378000000000 17.499375000000 1.841170008446
1220 1 7.972500000000 17.499375000000 4.602925021114
1221 2 7.972500000000 18.147500000000 0.920585004223
1222 2 6.378000000000 18.147500000000 3.682340016891
1223 2 6.378000000000 15.555000000000 1.841170008446
1224 2 7.972500000000 15.555000000000 4.602925021114
1225 1 11.161500000000 20.091875000000 0.920585004223
1226 1 9.567000000000 20.091875000000 3.682340016891
1227 1 9.567000000000 17.499375000000 1.841170008446
1228 1 11.161500000000 17.499375000000 4.602925021114
1229 2 11.161500000000 18.147500000000 0.920585004223
1230 2 9.567000000000 18.147500000000 3.682340016891
1231 2 9.567000000000 15.555000000000 1.841170008446
1232 2 11.161500000000 15.555000000000 4.602925021114
1233 1 14.350500000000 20.091875000000 0.920585004223
1234 1 12.756000000000 20.091875000000 3.682340016891
1235 1 12.756000000000 17.499375000000 1.841170008446
1236 1 14.350500000000 17.499375000000 4.602925021114
1237 2 14.350500000000 18.147500000000 0.920585004223
1238 2 12.756000000000 18.147500000000 3.682340016891
1239 2 12.756000000000 15.555000000000 1.841170008446
1240 2 14.350500000000 15.555000000000 4.602925021114
1241 1 17.539500000000 20.091875000000 0.920585004223
1242 1 15.945000000000 20.091875000000 3.682340016891
1243 1 15.945000000000 17.499375000000 1.841170008446
1244 1 17.539500000000 17.499375000000 4.602925021114
1245 2 17.539500000000 18.147500000000 0.920585004223
1246 2 15.945000000000 18.147500000000 3.682340016891
1247 2 15.945000000000 15.555000000000 1.841170008446
1248 2 17.539500000000 15.555000000000 4.602925021114
1249 1 20.728500000000 20.091875000000 0.920585004223
1250 1 19.134000000000 20.091875000000 3.682340016891
1251 1 19.134000000000 17.499375000000 1.841170008446
1252 1 20.728500000000 17.499375000000 4.602925021114
1253 2 20.728500000000 18.147500000000 0.920585004223
1254 2 19.134000000000 18.147500000000 3.682340016891
1255 2 19.134000000000 15.555000000000 1.841170008446
1256 2 20.728500000000 15.555000000000 4.602925021114
1257 1 23.917500000000 20.091875000000 0.920585004223
1258 1 22.323000000000 20.091875000000 3.682340016891
1259 1 22.323000000000 17.499375000000 1.841170008446
1260 1 23.917500000000 17.499375000000 4.602925021114
1261 2 23.917500000000 18.147500000000 0.920585004223
1262 2 22.323000000000 18.147500000000 3.682340016891
1263 2 22.323000000000 15.555000000000 1.841170008446
1264 2 23.917500000000 15.555000000000 4.602925021114
1265 1 27.106500000000 20.091875000000 0.920585004223
1266 1 25.512000000000 20.091875000000 3.682340016891
1267 1 25.512000000000 17.499375000000 1.841170008446
1268 1 27.106500000000 17.499375000000 4.602925021114
1269 2 27.106500000000 18.147500000000 0.920585004223
1270 2 25.512000000000 18.147500000000 3.682340016891
1271 2 25.512000000000 15.555000000000 1.841170008446
1272 2 27.106500000000 15.555000000000 4.602925021114
1273 1 30.295500000000 20.091875000000 0.920585004223
1274 1 28.701000000000 20.091875000000 3.682340016891
1275 1 28.701000000000 17.499375000000 1.841170008446
1276 1 30.295500000000 17.499375000000 4.602925021114
1277 2 30.295500000000 18.147500000000 0.920585004223
1278 2 28.701000000000 18.147500000000 3.682340016891
1279 2 28.701000000000 15.555000000000 1.841170008446
1280 2 30.295500000000 15.555000000000 4.602925021114
1281 1 1.594500000000 20.091875000000 6.444095029560
1282 1 0.000000000000 20.091875000000 9.205850042229
1283 1 0.000000000000 17.499375000000 7.364680033783
1284 1 1.594500000000 17.499375000000 10.126435046451
1285 2 1.594500000000 18.147500000000 6.444095029560
1286 2 0.000000000000 18.147500000000 9.205850042229
1287 2 0.000000000000 15.555000000000 7.364680033783
1288 2 1.594500000000 15.555000000000 10.126435046451
1289 1 4.783500000000 20.091875000000 6.444095029560
1290 1 3.189000000000 20.091875000000 9.205850042229
1291 1 3.189000000000 17.499375000000 7.364680033783
1292 1 4.783500000000 17.499375000000 10.126435046451
1293 2 4.783500000000 18.147500000000 6.444095029560
1294 2 3.189000000000 18.147500000000 9.205850042229
1295 2 3.189000000000 15.555000000000 7.364680033783
1296 2 4.783500000000 15.555000000000 10.126435046451
1297 1 7.972500000000 20.091875000000 6.444095029560
1298 1 6.378000000000 20.091875000000 9.205850042229
1299 1 6.378000000000 17.499375000000 7.364680033783
1300 1 7.972500000000 17.499375000000 10.126435046451
1301 2 7.972500000000 18.147500000000 6.444095029560
1302 2 6.378000000000 18.147500000000 9.205850042229
1303 2 6.378000000000 15.555000000000 7.364680033783
1304 2 7.972500000000 15.555000000000 10.126435046451
1305 1 11.161500000000 20.091875000000 6.444095029560
1306 1 9.567000000000 20.091875000000 9.205850042229
1307 1 9.567000000000 17.499375000000 7.364680033783
1308 1 11.161500000000 17.499375000000 10.126435046451
1309 2 11.161500000000 18.147500000000 6.444095029560
1310 2 9.567000000000 18.147500000000 9.205850042229
1311 2 9.567000000000 15.555000000000 7.364680033783
1312 2 11.161500000000 15.555000000000 10.126435046451
1313 1 14.350500000000 20.091875000000 6.444095029560
1314 1 12.756000000000 20.091875000000 9.205850042229
1315 1 12.756000000000 17.499375000000 7.364680033783
1316 1 14.350500000000 17.499375000000 10.126435046451
1317 2 14.350500000000 18.147500000000 6.444095029560
1318 2 12.756000000000 18.147500000000 9.205850042229
1319 2 12.756000000000 15.555000000000 7.364680033783
1320 2 14.350500000000 15.555000000000 10.126435046451
1321 1 17.539500000000 20.091875000000 6.444095029560
1322 1 15.945000000000 20.091875000000 9.205850042229
1323 1 15.945000000000 17.499375000000 7.364680033783
1324 1 17.539500000000 17.499375000000 10.126435046451
1325 2 17.539500000000 18.147500000000 6.444095029560
1326 2 15.945000000000 18.147500000000 9.205850042229
1327 2 15.945000000000 15.555000000000 7.364680033783
1328 2 17.539500000000 15.555000000000 10.126435046451
1329 1 20.728500000000 20.091875000000 6.444095029560
1330 1 19.134000000000 20.091875000000 9.205850042229
1331 1 19.134000000000 17.499375000000 7.364680033783
1332 1 20.728500000000 17.499375000000 10.126435046451
1333 2 20.728500000000 18.147500000000 6.444095029560
1334 2 19.134000000000 18.147500000000 9.205850042229
1335 2 19.134000000000 15.555000000000 7.364680033783
1336 2 20.728500000000 15.555000000000 10.126435046451
1337 1 23.917500000000 20.091875000000 6.444095029560
1338 1 22.323000000000 20.091875000000 9.205850042229
1339 1 22.323000000000 17.499375000000 7.364680033783
1340 1 23.917500000000 17.499375000000 10.126435046451
1341 2 23.917500000000 18.147500000000 6.444095029560
1342 2 22.323000000000 18.147500000000 9.205850042229
1343 2 22.323000000000 15.555000000000 7.364680033783
1344 2 23.917500000000 15.555000000000 10.126435046451
1345 1 27.106500000000 20.091875000000 6.444095029560
1346 1 25.512000000000 20.091875000000 9.205850042229
1347 1 25.512000000000 17.499375000000 7.364680033783
1348 1 27.106500000000 17.499375000000 10.126435046451
1349 2 27.106500000000 18.147500000000 6.444095029560
1350 2 25.512000000000 18.147500000000 9.205850042229
1351 2 25.512000000000 15.555000000000 7.364680033783
1352 2 27.106500000000 15.555000000000 10.126435046451
1353 1 30.295500000000 20.091875000000 6.444095029560
1354 1 28.701000000000 20.091875000000 9.205850042229
1355 1 28.701000000000 17.499375000000 7.364680033783
1356 1 30.295500000000 17.499375000000 10.126435046451
1357 2 30.295500000000 18.147500000000 6.444095029560
1358 2 28.701000000000 18.147500000000 9.205850042229
1359 2 28.701000000000 15.555000000000 7.364680033783
1360 2 30.295500000000 15.555000000000 10.126435046451
1361 1 1.594500000000 20.091875000000 11.967605054897
1362 1 0.000000000000 20.091875000000 14.729360067566
1363 1 0.000000000000 17.499375000000 12.888190059120
1364 1 1.594500000000 17.499375000000 15.649945071789
1365 2 1.594500000000 18.147500000000 11.967605054897
1366 2 0.000000000000 18.147500000000 14.729360067566
1367 2 0.000000000000 15.555000000000 12.888190059120
1368 2 1.594500000000 15.555000000000 15.649945071789
1369 1 4.783500000000 20.091875000000 11.967605054897
1370 1 3.189000000000 20.091875000000 14.729360067566
1371 1 3.189000000000 17.499375000000 12.888190059120
1372 1 4.783500000000 17.499375000000 15.649945071789
1373 2 4.783500000000 18.147500000000 11.967605054897
1374 2 3.189000000000 18.147500000000 14.729360067566
1375 2 3.189000000000 15.555000000000 12.888190059120
1376 2 4.783500000000 15.555000000000 15.649945071789
1377 1 7.972500000000 20.091875000000 11.967605054897
1378 1 6.378000000000 20.091875000000 14.729360067566
1379 1 6.378000000000 17.499375000000 12.888190059120
1380 1 7.972500000000 17.499375000000 15.649945071789
1381 2 7.972500000000 18.147500000000 11.967605054897
1382 2 6.378000000000 18.147500000000 14.729360067566
1383 2 6.378000000000 15.555000000000 12.888190059120
1384 2 7.972500000000 15.555000000000 15.649945071789
1385 1 11.161500000000 20.091875000000 11.967605054897
1386 1 9.567000000000 20.091875000000 14.729360067566
1387 1 9.567000000000 17.499375000000 12.888190059120
1388 1 11.161500000000 17.499375000000 15.649945071789
1389 2 11.161500000000 18.147500000000 11.967605054897
1390 2 9.567000000000 18.147500000000 14.729360067566
1391 2 9.567000000000 15.555000000000 12.888190059120
1392 2 11.161500000000 15.555000000000 15.649945071789
1393 1 14.350500000000 20.091875000000 11.967605054897
1394 1 12.756000000000 20.091875000000 14.729360067566
1395 1 12.756000000000 17.499375000000 12.888190059120
1396 1 14.350500000000 17.499375000000 15.649945071789
1397 2 14.350500000000 18.147500000000 11.967605054897
1398 2 12.756000000000 18.147500000000 14.729360067566
1399 2 12.756000000000 15.555000000000 12.888190059120
1400 2 14.350500000000 15.555000000000 15.649945071789
1401 1 17.539500000000 20.091875000000 11.967605054897
1402 1 15.945000000000 20.091875000000 14.729360067566
1403 1 15.945000000000 17.499375000000 12.888190059120
1404 1 17.539500000000 17.499375000000 15.649945071789
1405 2 17.539500000000 18.147500000000 11.967605054897
1406 2 15.945000000000 18.147500000000 14.729360067566
1407 2 15.945000000000 15.555000000000 12.888190059120
1408 2 17.539500000000 15.555000000000 15.649945071789
1409 1 20.728500000000 20.091875000000 11.967605054897
1410 1 19.134000000000 20.091875000000 14.729360067566
1411 1 19.134000000000 17.499375000000 12.888190059120
1412 1 20.728500000000 17.499375000000 15.649945071789
1413 2 20.728500000000 18.147500000000 11.967605054897
1414 2 19.134000000000 18.147500000000 14.729360067566
1415 2 19.134000000000 15.555000000000 12.888190059120
1416 2 20.728500000000 15.555000000000 15.649945071789
1417 1 23.917500000000 20.091875000000 11.967605054897
1418 1 22.323000000000 20.091875000000 14.729360067566
1419 1 22.323000000000 17.499375000000 12.888190059120
1420 1 23.917500000000 17.499375000000 15.649945071789
1421 2 23.917500000000 18.147500000000 11.967605054897
1422 2 22.323000000000 18.147500000000 14.729360067566
1423 2 22.323000000000 15.555000000000 12.888190059120
1424 2 23.917500000000 15.555000000000 15.649945071789
1425 1 27.106500000000 20.091875000000 11.967605054897
1426 1 25.512000000000 20.091875000000 14.729360067566
1427 1 25.512000000000 17.499375000000 12.888190059120
1428 1 27.106500000000 17.499375000000 15.649945071789
1429 2 27.106500000000 18.147500000000 11.967605054897
1430 2 25.512000000000 18.147500000000 14.729360067566
1431 2 25.512000000000 15.555000000000 12.888190059120
1432 2 27.106500000000 15.555000000000 15.649945071789
1433 1 30.295500000000 20.091875000000 11.967605054897
1434 1 28.701000000000 20.091875000000 14.729360067566
1435 1 28.701000000000 17.499375000000 12.888190059120
1436 1 30.295500000000 17.499375000000 15.649945071789
1437 2 30.295500000000 18.147500000000 11.967605054897
1438 2 28.701000000000 18.147500000000 14.729360067566
1439 2 28.701000000000 15.555000000000 12.888190059120
1440 2 30.295500000000 15.555000000000 15.649945071789
1441 1 1.594500000000 20.091875000000 17.491115080234
1442 1 0.000000000000 20.091875000000 20.252870092903
1443 1 0.000000000000 17.499375000000 18.411700084457
1444 1 1.594500000000 17.499375000000 21.173455097126
1445 2 1.594500000000 18.147500000000 17.491115080234
1446 2 0.000000000000 18.147500000000 20.252870092903
1447 2 0.000000000000 15.555000000000 18.411700084457
1448 2 1.594500000000 15.555000000000 21.173455097126
1449 1 4.783500000000 20.091875000000 17.491115080234
1450 1 3.189000000000 20.091875000000 20.252870092903
1451 1 3.189000000000 17.499375000000 18.411700084457
1452 1 4.783500000000 17.499375000000 21.173455097126
1453 2 4.783500000000 18.147500000000 17.491115080234
1454 2 3.189000000000 18.147500000000 20.252870092903
1455 2 3.189000000000 15.555000000000 18.411700084457
1456 2 4.783500000000 15.555000000000 21.173455097126
1457 1 7.972500000000 20.091875000000 17.491115080234
1458 1 6.378000000000 20.091875000000 20.252870092903
1459 1 6.378000000000 17.499375000000 18.411700084457
1460 1 7.972500000000 17.499375000000 21.173455097126
1461 2 7.972500000000 18.147500000000 17.491115080234
1462 2 6.378000000000 18.147500000000 20.252870092903
1463 2 6.378000000000 15.555000000000 18.411700084457
1464 2 7.972500000000 15.555000000000 21.173455097126
1465 1 11.161500000000 20.091875000000 17.491115080234
1466 1 9.567000000000 20.091875000000 20.252870092903
1467 1 9.567000000000 17.499375000000 18.411700084457
1468 1 11.161500000000 17.499375000000 21.173455097126
1469 2 11.161500000000 18.147500000000 17.491115080234
1470 2 9.567000000000 18.147500000000 20.252870092903
1471 2 9.567000000000 15.555000000000 18.411700084457
1472 2 11.161500000000 15.555000000000 21.173455097126
1473 1 14.350500000000 20.091875000000 17.491115080234
1474 1 12.756000000000 20.091875000000 20.252870092903
1475 1 12.756000000000 17.499375000000 18.411700084457
1476 1 14.350500000000 17.499375000000 21.173455097126
1477 2 14.350500000000 18.147500000000 17.491115080234
1478 2 12.756000000000 18.147500000000 20.252870092903
1479 2 12.756000000000 15.555000000000 18.411700084457
1480 2 14.350500000000 15.555000000000 21.173455097126
1481 1 17.539500000000 20.091875000000 17.491115080234
1482 1 15.945000000000 20.091875000000 20.252870092903
1483 1 15.945000000000 17.499375000000 18.411700084457
1484 1 17.539500000000 17.499375000000 21.173455097126
1485 2 17.539500000000 18.147500000000 17.491115080234
1486 2 15.945000000000 18.147500000000 20.252870092903
1487 2 15.945000000000 15.555000000000 18.411700084457
1488 2 17.539500000000 15.555000000000 21.173455097126
1489 1 20.728500000000 20.091875000000 17.491115080234
1490 1 19.134000000000 20.091875000000 20.252870092903
1491 1 19.134000000000 17.499375000000 18.411700084457
1492 1 20.728500000000 17.499375000000 21.173455097126
1493 2 20.728500000000 18.147500000000 17.491115080234
1494 2 19.134000000000 18.147500000000 20.252870092903
1495 2 19.134000000000 15.555000000000 18.411700084457
1496 2 20.728500000000 15.555000000000 21.173455097126
1497 1 23.917500000000 20.091875000000 17.491115080234
1498 1 22.323000000000 20.091875000000 20.252870092903
1499 1 22.323000000000 17.499375000000 18.411700084457
1500 1 23.917500000000 17.499375000000 21.173455097126
1501 2 23.917500000000 18.147500000000 17.491115080234
1502 2 22.323000000000 18.147500000000 20.252870092903
1503 2 22.323000000000 15.555000000000 18.411700084457
1504 2 23.917500000000 15.555000000000 21.173455097126
1505 1 27.106500000000 20.091875000000 17.491115080234
1506 1 25.512000000000 20.091875000000 20.252870092903
1507 1 25.512000000000 17.499375000000 18.411700084457
1508 1 27.106500000000 17.499375000000 21.173455097126
1509 2 27.106500000000 18.147500000000 17.491115080234
1510 2 25.512000000000 18.147500000000 20.252870092903
1511 2 25.512000000000 15.555000000000 18.411700084457
1512 2 27.106500000000 15.555000000000 21.173455097126
1513 1 30.295500000000 20.091875000000 17.491115080234
1514 1 28.701000000000 20.091875000000 20.252870092903
1515 1 28.701000000000 17.499375000000 18.411700084457
1516 1 30.295500000000 17.499375000000 21.173455097126
1517 2 30.295500000000 18.147500000000 17.491115080234
1518 2 28.701000000000 18.147500000000 20.252870092903
1519 2 28.701000000000 15.555000000000 18.411700084457
1520 2 30.295500000000 15.555000000000 21.173455097126
1521 1 1.594500000000 20.091875000000 23.014625105571
1522 1 0.000000000000 20.091875000000 25.776380118240
1523 1 0.000000000000 17.499375000000 23.935210109794
1524 1 1.594500000000 17.499375000000 26.696965122463
1525 2 1.594500000000 18.147500000000 23.014625105571
1526 2 0.000000000000 18.147500000000 25.776380118240
1527 2 0.000000000000 15.555000000000 23.935210109794
1528 2 1.594500000000 15.555000000000 26.696965122463
1529 1 4.783500000000 20.091875000000 23.014625105571
1530 1 3.189000000000 20.091875000000 25.776380118240
1531 1 3.189000000000 17.499375000000 23.935210109794
1532 1 4.783500000000 17.499375000000 26.696965122463
1533 2 4.783500000000 18.147500000000 23.014625105571
1534 2 3.189000000000 18.147500000000 25.776380118240
1535 2 3.189000000000 15.555000000000 23.935210109794
1536 2 4.783500000000 15.555000000000 26.696965122463
1537 1 7.972500000000 20.091875000000 23.014625105571
1538 1 6.378000000000 20.091875000000 25.776380118240
1539 1 6.378000000000 17.499375000000 23.935210109794
1540 1 7.972500000000 17.499375000000 26.696965122463
1541 2 7.972500000000 18.147500000000 23.014625105571
1542 2 6.378000000000 18.147500000000 25.776380118240
1543 2 6.378000000000 15.555000000000 23.935210109794
1544 2 7.972500000000 15.555000000000 26.696965122463
1545 1 11.161500000000 20.091875000000 23.014625105571
1546 1 9.567000000000 20.091875000000 25.776380118240
1547 1 9.567000000000 17.499375000000 23.935210109794
1548 1 11.161500000000 17.499375000000 26.696965122463
1549 2 11.161500000000 18.147500000000 23.014625105571
1550 2 9.567000000000 18.147500000000 25.776380118240
1551 2 9.567000000000 15.555000000000 23.935210109794
1552 2 11.161500000000 15.555000000000 26.696965122463
1553 1 14.350500000000 20.091875000000 23.014625105571
1554 1 12.756000000000 20.091875000000 25.776380118240
1555 1 12.756000000000 17.499375000000 23.935210109794
1556 1 14.350500000000 17.499375000000 26.696965122463
1557 2 14.350500000000 18.147500000000 23.014625105571
1558 2 12.756000000000 18.147500000000 25.776380118240
1559 2 12.756000000000 15.555000000000 23.935210109794
1560 2 14.350500000000 15.555000000000 26.696965122463
1561 1 17.539500000000 20.091875000000 23.014625105571
1562 1 15.945000000000 20.091875000000 25.776380118240
1563 1 15.945000000000 17.499375000000 23.935210109794
1564 1 17.539500000000 17.499375000000 26.696965122463
1565 2 17.539500000000 18.147500000000 23.014625105571
1566 2 15.945000000000 18.147500000000 25.776380118240
1567 2 15.945000000000 15.555000000000 23.935210109794
1568 2 17.539500000000 15.555000000000 26.696965122463
1569 1 20.728500000000 20.091875000000 23.014625105571
1570 1 19.134000000000 20.091875000000 25.776380118240
1571 1 19.134000000000 17.499375000000 23.935210109794
1572 1 20.728500000000 17.499375000000 26.696965122463
1573 2 20.728500000000 18.147500000000 23.014625105571
1574 2 19.134000000000 18.147500000000 25.776380118240
1575 2 19.134000000000 15.555000000000 23.935210109794
1576 2 20.728500000000 15.555000000000 26.696965122463
1577 1 23.917500000000 20.091875000000 23.014625105571
1578 1 22.323000000000 20.091875000000 25.776380118240
1579 1 22.323000000000 17.499375000000 23.935210109794
1580 1 23.917500000000 17.499375000000 26.696965122463
1581 2 23.917500000000 18.147500000000 23.014625105571
1582 2 22.323000000000 18.147500000000 25.776380118240
1583 2 22.323000000000 15.555000000000 23.935210109794
1584 2 23.917500000000 15.555000000000 26.696965122463
1585 1 27.106500000000 20.091875000000 23.014625105571
1586 1 25.512000000000 20.091875000000 25.776380118240
1587 1 25.512000000000 17.499375000000 23.935210109794
1588 1 27.106500000000 17.499375000000 26.696965122463
1589 2 27.106500000000 18.147500000000 23.014625105571
1590 2 25.512000000000 18.147500000000 25.776380118240
1591 2 25.512000000000 15.555000000000 23.935210109794
1592 2 27.106500000000 15.555000000000 26.696965122463
1593 1 30.295500000000 20.091875000000 23.014625105571
1594 1 28.701000000000 20.091875000000 25.776380118240
1595 1 28.701000000000 17.499375000000 23.935210109794
1596 1 30.295500000000 17.499375000000 26.696965122463
1597 2 30.295500000000 18.147500000000 23.014625105571
1598 2 28.701000000000 18.147500000000 25.776380118240
1599 2 28.701000000000 15.555000000000 23.935210109794
1600 2 30.295500000000 15.555000000000 26.696965122463
1601 1 1.594500000000 25.276875000000 0.920585004223
1602 1 0.000000000000 25.276875000000 3.682340016891
1603 1 0.000000000000 22.684375000000 1.841170008446
1604 1 1.594500000000 22.684375000000 4.602925021114
1605 2 1.594500000000 23.332500000000 0.920585004223
1606 2 0.000000000000 23.332500000000 3.682340016891
1607 2 0.000000000000 20.740000000000 1.841170008446
1608 2 1.594500000000 20.740000000000 4.602925021114
1609 1 4.783500000000 25.276875000000 0.920585004223
1610 1 3.189000000000 25.276875000000 3.682340016891
1611 1 3.189000000000 22.684375000000 1.841170008446
1612 1 4.783500000000 22.684375000000 4.602925021114
1613 2 4.783500000000 23.332500000000 0.920585004223
1614 2 3.189000000000 23.332500000000 3.682340016891
1615 2 3.189000000000 20.740000000000 1.841170008446
1616 2 4.783500000000 20.740000000000 4.602925021114
1617 1 7.972500000000 25.276875000000 0.920585004223
1618 1 6.378000000000 25.276875000000 3.682340016891
1619 1 6.378000000000 22.684375000000 1.841170008446
1620 1 7.972500000000 22.684375000000 4.602925021114
1621 2 7.972500000000 23.332500000000 0.920585004223
1622 2 6.378000000000 23.332500000000 3.682340016891
1623 2 6.378000000000 20.740000000000 1.841170008446
1624 2 7.972500000000 20.740000000000 4.602925021114
1625 1 11.161500000000 25.276875000000 0.920585004223
1626 1 9.567000000000 25.276875000000 3.682340016891
1627 1 9.567000000000 22.684375000000 1.841170008446
1628 1 11.161500000000 22.684375000000 4.602925021114
1629 2 11.161500000000 23.332500000000 0.920585004223
1630 2 9.567000000000 23.332500000000 3.682340016891
1631 2 9.567000000000 20.740000000000 1.841170008446
1632 2 11.161500000000 20.740000000000 4.602925021114
1633 1 14.350500000000 25.276875000000 0.920585004223
1634 1 12.756000000000 25.276875000000 3.682340016891
1635 1 12.756000000000 22.684375000000 1.841170008446
1636 1 14.350500000000 22.684375000000 4.602925021114
1637 2 14.350500000000 23.332500000000 0.920585004223
1638 2 12.756000000000 23.332500000000 3.682340016891
1639 2 12.756000000000 20.740000000000 1.841170008446
1640 2 14.350500000000 20.740000000000 4.602925021114
1641 1 17.539500000000 25.276875000000 0.920585004223
1642 1 15.945000000000 25.276875000000 3.682340016891
1643 1 15.945000000000 22.684375000000 1.841170008446
1644 1 17.539500000000 22.684375000000 4.602925021114
1645 2 17.539500000000 23.332500000000 0.920585004223
1646 2 15.945000000000 23.332500000000 3.682340016891
1647 2 15.945000000000 20.740000000000 1.841170008446
1648 2 17.539500000000 20.740000000000 4.602925021114
1649 1 20.728500000000 25.276875000000 0.920585004223
1650 1 19.134000000000 25.276875000000 3.682340016891
1651 1 19.134000000000 22.684375000000 1.841170008446
1652 1 20.728500000000 22.684375000000 4.602925021114
1653 2 20.728500000000 23.332500000000 0.920585004223
1654 2 19.134000000000 23.332500000000 3.682340016891
1655 2 19.134000000000 20.740000000000 1.841170008446
1656 2 20.728500000000 20.740000000000 4.602925021114
1657 1 23.917500000000 25.276875000000 0.920585004223
1658 1 22.323000000000 25.276875000000 3.682340016891
1659 1 22.323000000000 22.684375000000 1.841170008446
1660 1 23.917500000000 22.684375000000 4.602925021114
1661 2 23.917500000000 23.332500000000 0.920585004223
1662 2 22.323000000000 23.332500000000 3.682340016891
1663 2 22.323000000000 20.740000000000 1.841170008446
1664 2 23.917500000000 20.740000000000 4.602925021114
1665 1 27.106500000000 25.276875000000 0.920585004223
1666 1 25.512000000000 25.276875000000 3.682340016891
1667 1 25.512000000000 22.684375000000 1.841170008446
1668 1 27.106500000000 22.684375000000 4.602925021114
1669 2 27.106500000000 23.332500000000 0.920585004223
1670 2 25.512000000000 23.332500000000 3.682340016891
1671 2 25.512000000000 20.740000000000 1.841170008446
1672 2 27.106500000000 20.740000000000 4.602925021114
1673 1 30.295500000000 25.276875000000 0.920585004223
1674 1 28.701000000000 25.276875000000 3.682340016891
1675 1 28.701000000000 22.684375000000 1.841170008446
1676 1 30.295500000000 22.684375000000 4.602925021114
1677 2 30.295500000000 23.332500000000 0.920585004223
1678 2 28.701000000000 23.332500000000 3.682340016891
1679 2 28.701000000000 20.740000000000 1.841170008446
1680 2 30.295500000000 20.740000000000 4.602925021114
1681 1 1.594500000000 25.276875000000 6.444095029560
1682 1 0.000000000000 25.276875000000 9.205850042229
1683 1 0.000000000000 22.684375000000 7.364680033783
1684 1 1.594500000000 22.684375000000 10.126435046451
1685 2 1.594500000000 23.332500000000 6.444095029560
1686 2 0.000000000000 23.332500000000 9.205850042229
1687 2 0.000000000000 20.740000000000 7.364680033783
1688 2 1.594500000000 20.740000000000 10.126435046451
1689 1 4.783500000000 25.276875000000 6.444095029560
1690 1 3.189000000000 25.276875000000 9.205850042229
1691 1 3.189000000000 22.684375000000 7.364680033783
1692 1 4.783500000000 22.684375000000 10.126435046451
1693 2 4.783500000000 23.332500000000 6.444095029560
1694 2 3.189000000000 23.332500000000 9.205850042229
1695 2 3.189000000000 20.740000000000 7.364680033783
1696 2 4.783500000000 20.740000000000 10.126435046451
1697 1 7.972500000000 25.276875000000 6.444095029560
1698 1 6.378000000000 25.276875000000 9.205850042229
1699 1 6.378000000000 22.684375000000 7.364680033783
1700 1 7.972500000000 22.684375000000 10.126435046451
1701 2 7.972500000000 23.332500000000 6.444095029560
1702 2 6.378000000000 23.332500000000 9.205850042229
1703 2 6.378000000000 20.740000000000 7.364680033783
1704 2 7.972500000000 20.740000000000 10.126435046451
1705 1 11.161500000000 25.276875000000 6.444095029560
1706 1 9.567000000000 25.276875000000 9.205850042229
1707 1 9.567000000000 22.684375000000 7.364680033783
1708 1 11.161500000000 22.684375000000 10.126435046451
1709 2 11.161500000000 23.332500000000 6.444095029560
1710 2 9.567000000000 23.332500000000 9.205850042229
1711 2 9.567000000000 20.740000000000 7.364680033783
1712 2 11.161500000000 20.740000000000 10.126435046451
1713 1 14.350500000000 25.276875000000 6.444095029560
1714 1 12.756000000000 25.276875000000 9.205850042229
1715 1 12.756000000000 22.684375000000 7.364680033783
1716 1 14.350500000000 22.684375000000 10.126435046451
1717 2 14.350500000000 23.332500000000 6.444095029560
1718 2 12.756000000000 23.332500000000 9.205850042229
1719 2 12.756000000000 20.740000000000 7.364680033783
1720 2 14.350500000000 20.740000000000 10.126435046451
1721 1 17.539500000000 25.276875000000 6.444095029560
1722 1 15.945000000000 25.276875000000 9.205850042229
1723 1 15.945000000000 22.684375000000 7.364680033783
1724 1 17.539500000000 22.684375000000 10.126435046451
1725 2 17.539500000000 23.332500000000 6.444095029560
1726 2 15.945000000000 23.332500000000 9.205850042229
1727 2 15.945000000000 20.740000000000 7.364680033783
1728 2 17.539500000000 20.740000000000 10.126435046451
1729 1 20.728500000000 25.276875000000 6.444095029560
1730 1 19.134000000000 25.276875000000 9.205850042229
1731 1 19.134000000000 22.684375000000 7.364680033783
1732 1 20.728500000000 22.684375000000 10.126435046451
1733 2 20.728500000000 23.332500000000 6.444095029560
1734 2 19.134000000000 23.332500000000 9.205850042229
1735 2 19.134000000000 20.740000000000 7.364680033783
1736 2 20.728500000000 20.740000000000 10.126435046451
1737 1 23.917500000000 25.276875000000 6.444095029560
1738 1 22.323000000000 25.276875000000 9.205850042229
1739 1 22.323000000000 22.684375000000 7.364680033783
1740 1 23.917500000000 22.684375000000 10.126435046451
1741 2 23.917500000000 23.332500000000 6.444095029560
1742 2 22.323000000000 23.332500000000 9.205850042229
1743 2 22.323000000000 20.740000000000 7.364680033783
1744 2 23.917500000000 20.740000000000 10.126435046451
1745 1 27.106500000000 25.276875000000 6.444095029560
1746 1 25.512000000000 25.276875000000 9.205850042229
1747 1 25.512000000000 22.684375000000 7.364680033783
1748 1 27.106500000000 22.684375000000 10.126435046451
1749 2 27.106500000000 23.332500000000 6.444095029560
1750 2 25.512000000000 23.332500000000 9.205850042229
1751 2 25.512000000000 20.740000000000 7.364680033783
1752 2 27.106500000000 20.740000000000 10.126435046451
1753 1 30.295500000000 25.276875000000 6.444095029560
1754 1 28.701000000000 25.276875000000 9.205850042229
1755 1 28.701000000000 22.684375000000 7.364680033783
1756 1 30.295500000000 22.684375000000 10.126435046451
1757 2 30.295500000000 23.332500000000 6.444095029560
1758 2 28.701000000000 23.332500000000 9.205850042229
1759 2 28.701000000000 20.740000000000 7.364680033783
1760 2 30.295500000000 20.740000000000 10.126435046451
1761 1 1.594500000000 25.276875000000 11.967605054897
1762 1 0.000000000000 25.276875000000 14.729360067566
1763 1 0.000000000000 22.684375000000 12.888190059120
1764 1 1.594500000000 22.684375000000 15.649945071789
1765 2 1.594500000000 23.332500000000 11.967605054897
1766 2 0.000000000000 23.332500000000 14.729360067566
1767 2 0.000000000000 20.740000000000 12.888190059120
1768 2 1.594500000000 20.740000000000 15.649945071789
1769 1 4.783500000000 25.276875000000 11.967605054897
1770 1 3.189000000000 25.276875000000 14.729360067566
1771 1 3.189000000000 22.684375000000 12.888190059120
1772 1 4.783500000000 22.684375000000 15.649945071789
1773 2 4.783500000000 23.332500000000 11.967605054897
1774 2 3.189000000000 23.332500000000 14.729360067566
1775 2 3.189000000000 20.740000000000 12.888190059120
1776 2 4.783500000000 20.740000000000 15.649945071789
1777 1 7.972500000000 25.276875000000 11.967605054897
1778 1 6.378000000000 25.276875000000 14.729360067566
1779 1 6.378000000000 22.684375000000 12.888190059120
1780 1 7.972500000000 22.684375000000 15.649945071789
1781 2 7.972500000000 23.332500000000 11.967605054897
1782 2 6.378000000000 23.332500000000 14.729360067566
1783 2 6.378000000000 20.740000000000 12.888190059120
1784 2 7.972500000000 20.740000000000 15.649945071789
1785 1 11.161500000000 25.276875000000 11.967605054897
1786 1 9.567000000000 25.276875000000 14.729360067566
1787 1 9.567000000000 22.684375000000 12.888190059120
1788 1 11.161500000000 22.684375000000 15.649945071789
1789 2 11.161500000000 23.332500000000 11.967605054897
1790 2 9.567000000000 23.332500000000 14.729360067566
1791 2 9.567000000000 20.740000000000 12.888190059120
1792 2 11.161500000000 20.740000000000 15.649945071789
1793 1 14.350500000000 25.276875000000 11.967605054897
1794 1 12.756000000000 25.276875000000 14.729360067566
1795 1 12.756000000000 22.684375000000 12.888190059120
1796 1 14.350500000000 22.684375000000 15.649945071789
1797 2 14.350500000000 23.332500000000 11.967605054897
1798 2 12.756000000000 23.332500000000 14.729360067566
1799 2 12.756000000000 20.740000000000 12.888190059120
1800 2 14.350500000000 20.740000000000 15.649945071789
1801 1 17.539500000000 25.276875000000 11.967605054897
1802 1 15.945000000000 25.276875000000 14.729360067566
1803 1 15.945000000000 22.684375000000 12.888190059120
1804 1 17.539500000000 22.684375000000 15.649945071789
1805 2 17.539500000000 23.332500000000 11.967605054897
1806 2 15.945000000000 23.332500000000 14.729360067566
1807 2 15.945000000000 20.740000000000 12.888190059120
1808 2 17.539500000000 20.740000000000 15.649945071789
1809 1 20.728500000000 25.276875000000 11.967605054897
1810 1 19.134000000000 25.276875000000 14.729360067566
1811 1 19.134000000000 22.684375000000 12.888190059120
1812 1 20.728500000000 22.684375000000 15.649945071789
1813 2 20.728500000000 23.332500000000 11.967605054897
1814 2 19.134000000000 23.332500000000 14.729360067566
1815 2 19.134000000000 20.740000000000 12.888190059120
1816 2 20.728500000000 20.740000000000 15.649945071789
1817 1 23.917500000000 25.276875000000 11.967605054897
1818 1 22.323000000000 25.276875000000 14.729360067566
1819 1 22.323000000000 22.684375000000 12.888190059120
1820 1 23.917500000000 22.684375000000 15.649945071789
1821 2 23.917500000000 23.332500000000 11.967605054897
1822 2 22.323000000000 23.332500000000 14.729360067566
1823 2 22.323000000000 20.740000000000 12.888190059120
1824 2 23.917500000000 20.740000000000 15.649945071789
1825 1 27.106500000000 25.276875000000 11.967605054897
1826 1 25.512000000000 25.276875000000 14.729360067566
1827 1 25.512000000000 22.684375000000 12.888190059120
1828 1 27.106500000000 22.684375000000 15.649945071789
1829 2 27.106500000000 23.332500000000 11.967605054897
1830 2 25.512000000000 23.332500000000 14.729360067566
1831 2 25.512000000000 20.740000000000 12.888190059120
1832 2 27.106500000000 20.740000000000 15.649945071789
1833 1 30.295500000000 25.276875000000 11.967605054897
1834 1 28.701000000000 25.276875000000 14.729360067566
1835 1 28.701000000000 22.684375000000 12.888190059120
1836 1 30.295500000000 22.684375000000 15.649945071789
1837 2 30.295500000000 23.332500000000 11.967605054897
1838 2 28.701000000000 23.332500000000 14.729360067566
1839 2 28.701000000000 20.740000000000 12.888190059120
1840 2 30.295500000000 20.740000000000 15.649945071789
1841 1 1.594500000000 25.276875000000 17.491115080234
1842 1 0.000000000000 25.276875000000 20.252870092903
1843 1 0.000000000000 22.684375000000 18.411700084457
1844 1 1.594500000000 22.684375000000 21.173455097126
1845 2 1.594500000000 23.332500000000 17.491115080234
1846 2 0.000000000000 23.332500000000 20.252870092903
1847 2 0.000000000000 20.740000000000 18.411700084457
1848 2 1.594500000000 20.740000000000 21.173455097126
1849 1 4.783500000000 25.276875000000 17.491115080234
1850 1 3.189000000000 25.276875000000 20.252870092903
1851 1 3.189000000000 22.684375000000 18.411700084457
1852 1 4.783500000000 22.684375000000 21.173455097126
1853 2 4.783500000000 23.332500000000 17.491115080234
1854 2 3.189000000000 23.332500000000 20.252870092903
1855 2 3.189000000000 20.740000000000 18.411700084457
1856 2 4.783500000000 20.740000000000 21.173455097126
1857 1 7.972500000000 25.276875000000 17.491115080234
1858 1 6.378000000000 25.276875000000 20.252870092903
1859 1 6.378000000000 22.684375000000 18.411700084457
1860 1 7.972500000000 22.684375000000 21.173455097126
1861 2 7.972500000000 23.332500000000 17.491115080234
1862 2 6.378000000000 23.332500000000 20.252870092903
1863 2 6.378000000000 20.740000000000 18.411700084457
1864 2 7.972500000000 20.740000000000 21.173455097126
1865 1 11.161500000000 25.276875000000 17.491115080234
1866 1 9.567000000000 25.276875000000 20.252870092903
1867 1 9.567000000000 22.684375000000 18.411700084457
1868 1 11.161500000000 22.684375000000 21.173455097126
1869 2 11.161500000000 23.332500000000 17.491115080234
1870 2 9.567000000000 23.332500000000 20.252870092903
1871 2 9.567000000000 20.740000000000 18.411700084457
1872 2 11.161500000000 20.740000000000 21.173455097126
1873 1 14.350500000000 25.276875000000 17.491115080234
1874 1 12.756000000000 25.276875000000 20.252870092903
1875 1 12.756000000000 22.684375000000 18.411700084457
1876 1 14.350500000000 22.684375000000 21.173455097126
1877 2 14.350500000000 23.332500000000 17.491115080234
1878 2 12.756000000000 23.332500000000 20.252870092903
1879 2 12.756000000000 20.740000000000 18.411700084457
1880 2 14.350500000000 20.740000000000 21.173455097126
1881 1 17.539500000000 25.276875000000 17.491115080234
1882 1 15.945000000000 25.276875000000 20.252870092903
1883 1 15.945000000000 22.684375000000 18.411700084457
1884 1 17.539500000000 22.684375000000 21.173455097126
1885 2 17.539500000000 23.332500000000 17.491115080234
1886 2 15.945000000000 23.332500000000 20.252870092903
1887 2 15.945000000000 20.740000000000 18.411700084457
1888 2 17.539500000000 20.740000000000 21.173455097126
1889 1 20.728500000000 25.276875000000 17.491115080234
1890 1 19.134000000000 25.276875000000 20.252870092903
1891 1 19.134000000000 22.684375000000 18.411700084457
1892 1 20.728500000000 22.684375000000 21.173455097126
1893 2 20.728500000000 23.332500000000 17.491115080234
1894 2 19.134000000000 23.332500000000 20.252870092903
1895 2 19.134000000000 20.740000000000 18.411700084457
1896 2 20.728500000000 20.740000000000 21.173455097126
1897 1 23.917500000000 25.276875000000 17.491115080234
1898 1 22.323000000000 25.276875000000 20.252870092903
1899 1 22.323000000000 22.684375000000 18.411700084457
1900 1 23.917500000000 22.684375000000 21.173455097126
1901 2 23.917500000000 23.332500000000 17.491115080234
1902 2 22.323000000000 23.332500000000 20.252870092903
1903 2 22.323000000000 20.740000000000 18.411700084457
1904 2 23.917500000000 20.740000000000 21.173455097126
1905 1 27.106500000000 25.276875000000 17.491115080234
1906 1 25.512000000000 25.276875000000 20.252870092903
1907 1 25.512000000000 22.684375000000 18.411700084457
1908 1 27.106500000000 22.684375000000 21.173455097126
1909 2 27.106500000000 23.332500000000 17.491115080234
1910 2 25.512000000000 23.332500000000 20.252870092903
1911 2 25.512000000000 20.740000000000 18.411700084457
1912 2 27.106500000000 20.740000000000 21.173455097126
1913 1 30.295500000000 25.276875000000 17.491115080234
1914 1 28.701000000000 25.276875000000 20.252870092903
1915 1 28.701000000000 22.684375000000 18.411700084457
1916 1 30.295500000000 22.684375000000 21.173455097126
1917 2 30.295500000000 23.332500000000 17.491115080234
1918 2 28.701000000000 23.332500000000 20.252870092903
1919 2 28.701000000000 20.740000000000 18.411700084457
1920 2 30.295500000000 20.740000000000 21.173455097126
1921 1 1.594500000000 25.276875000000 23.014625105571
1922 1 0.000000000000 25.276875000000 25.776380118240
1923 1 0.000000000000 22.684375000000 23.935210109794
1924 1 1.594500000000 22.684375000000 26.696965122463
1925 2 1.594500000000 23.332500000000 23.014625105571
1926 2 0.000000000000 23.332500000000 25.776380118240
1927 2 0.000000000000 20.740000000000 23.935210109794
1928 2 1.594500000000 20.740000000000 26.696965122463
1929 1 4.783500000000 25.276875000000 23.014625105571
1930 1 3.189000000000 25.276875000000 25.776380118240
1931 1 3.189000000000 22.684375000000 23.935210109794
1932 1 4.783500000000 22.684375000000 26.696965122463
1933 2 4.783500000000 23.332500000000 23.014625105571
1934 2 3.189000000000 23.332500000000 25.776380118240
1935 2 3.189000000000 20.740000000000 23.935210109794
1936 2 4.783500000000 20.740000000000 26.696965122463
1937 1 7.972500000000 25.276875000000 23.014625105571
1938 1 6.378000000000 25.276875000000 25.776380118240
1939 1 6.378000000000 22.684375000000 23.935210109794
1940 1 7.972500000000 22.684375000000 26.696965122463
1941 2 7.972500000000 23.332500000000 23.014625105571
1942 2 6.378000000000 23.332500000000 25.776380118240
1943 2 6.378000000000 20.740000000000 23.935210109794
1944 2 7.972500000000 20.740000000000 26.696965122463
1945 1 11.161500000000 25.276875000000 23.014625105571
1946 1 9.567000000000 25.276875000000 25.776380118240
1947 1 9.567000000000 22.684375000000 23.935210109794
1948 1 11.161500000000 22.684375000000 26.696965122463
1949 2 11.161500000000 23.332500000000 23.014625105571
1950 2 9.567000000000 23.332500000000 25.776380118240
1951 2 9.567000000000 20.740000000000 23.935210109794
1952 2 11.161500000000 20.740000000000 26.696965122463
1953 1 14.350500000000 25.276875000000 23.014625105571
1954 1 12.756000000000 25.276875000000 25.776380118240
1955 1 12.756000000000 22.684375000000 23.935210109794
1956 1 14.350500000000 22.684375000000 26.696965122463
1957 2 14.350500000000 23.332500000000 23.014625105571
1958 2 12.756000000000 23.332500000000 25.776380118240
1959 2 12.756000000000 20.740000000000 23.935210109794
1960 2 14.350500000000 20.740000000000 26.696965122463
1961 1 17.539500000000 25.276875000000 23.014625105571
1962 1 15.945000000000 25.276875000000 25.776380118240
1963 1 15.945000000000 22.684375000000 23.935210109794
1964 1 17.539500000000 22.684375000000 26.696965122463
1965 2 17.539500000000 23.332500000000 23.014625105571
1966 2 15.945000000000 23.332500000000 25.776380118240
1967 2 15.945000000000 20.740000000000 23.935210109794
1968 2 17.539500000000 20.740000000000 26.696965122463
1969 1 20.728500000000 25.276875000000 23.014625105571
1970 1 19.134000000000 25.276875000000 25.776380118240
1971 1 19.134000000000 22.684375000000 23.935210109794
1972 1 20.728500000000 22.684375000000 26.696965122463
1973 2 20.728500000000 23.332500000000 23.014625105571
1974 2 19.134000000000 23.332500000000 25.776380118240
1975 2 19.134000000000 20.740000000000 23.935210109794
1976 2 20.728500000000 20.740000000000 26.696965122463
1977 1 23.917500000000 25.276875000000 23.014625105571
1978 1 22.323000000000 25.276875000000 25.776380118240
1979 1 22.323000000000 22.684375000000 23.935210109794
1980 1 23.917500000000 22.684375000000 26.696965122463
1981 2 23.917500000000 23.332500000000 23.014625105571
1982 2 22.323000000000 23.332500000000 25.776380118240
1983 2 22.323000000000 20.740000000000 23.935210109794
1984 2 23.917500000000 20.740000000000 26.696965122463
1985 1 27.106500000000 25.276875000000 23.014625105571
1986 1 25.512000000000 25.276875000000 25.776380118240
1987 1 25.512000000000 22.684375000000 23.935210109794
1988 1 27.106500000000 22.684375000000 26.696965122463
1989 2 27.106500000000 23.332500000000 23.014625105571
1990 2 25.512000000000 23.332500000000 25.776380118240
1991 2 25.512000000000 20.740000000000 23.935210109794
1992 2 27.106500000000 20.740000000000 26.696965122463
1993 1 30.295500000000 25.276875000000 23.014625105571
1994 1 28.701000000000 25.276875000000 25.776380118240
1995 1 28.701000000000 22.684375000000 23.935210109794
1996 1 30.295500000000 22.684375000000 26.696965122463
1997 2 30.295500000000 23.332500000000 23.014625105571
1998 2 28.701000000000 23.332500000000 25.776380118240
1999 2 28.701000000000 20.740000000000 23.935210109794
2000 2 30.295500000000 20.740000000000 26.696965122463
2001 1 1.594500000000 30.461875000000 0.920585004223
2002 1 0.000000000000 30.461875000000 3.682340016891
2003 1 0.000000000000 27.869375000000 1.841170008446
2004 1 1.594500000000 27.869375000000 4.602925021114
2005 2 1.594500000000 28.517500000000 0.920585004223
2006 2 0.000000000000 28.517500000000 3.682340016891
2007 2 0.000000000000 25.925000000000 1.841170008446
2008 2 1.594500000000 25.925000000000 4.602925021114
2009 1 4.783500000000 30.461875000000 0.920585004223
2010 1 3.189000000000 30.461875000000 3.682340016891
2011 1 3.189000000000 27.869375000000 1.841170008446
2012 1 4.783500000000 27.869375000000 4.602925021114
2013 2 4.783500000000 28.517500000000 0.920585004223
2014 2 3.189000000000 28.517500000000 3.682340016891
2015 2 3.189000000000 25.925000000000 1.841170008446
2016 2 4.783500000000 25.925000000000 4.602925021114
2017 1 7.972500000000 30.461875000000 0.920585004223
2018 1 6.378000000000 30.461875000000 3.682340016891
2019 1 6.378000000000 27.869375000000 1.841170008446
2020 1 7.972500000000 27.869375000000 4.602925021114
2021 2 7.972500000000 28.517500000000 0.920585004223
2022 2 6.378000000000 28.517500000000 3.682340016891
2023 2 6.378000000000 25.925000000000 1.841170008446
2024 2 7.972500000000 25.925000000000 4.602925021114
2025 1 11.161500000000 30.461875000000 0.920585004223
2026 1 9.567000000000 30.461875000000 3.682340016891
2027 1 9.567000000000 27.869375000000 1.841170008446
2028 1 11.161500000000 27.869375000000 4.602925021114
2029 2 11.161500000000 28.517500000000 0.920585004223
2030 2 9.567000000000 28.517500000000 3.682340016891
2031 2 9.567000000000 25.925000000000 1.841170008446
2032 2 11.161500000000 25.925000000000 4.602925021114
2033 1 14.350500000000 30.461875000000 0.920585004223
2034 1 12.756000000000 30.461875000000 3.682340016891
2035 1 12.756000000000 27.869375000000 1.841170008446
2036 1 14.350500000000 27.869375000000 4.602925021114
2037 2 14.350500000000 28.517500000000 0.920585004223
2038 2 12.756000000000 28.517500000000 3.682340016891
2039 2 12.756000000000 25.925000000000 1.841170008446
2040 2 14.350500000000 25.925000000000 4.602925021114
2041 1 17.539500000000 30.461875000000 0.920585004223
2042 1 15.945000000000 30.461875000000 3.682340016891
2043 1 15.945000000000 27.869375000000 1.841170008446
2044 1 17.539500000000 27.869375000000 4.602925021114
2045 2 17.539500000000 28.517500000000 0.920585004223
2046 2 15.945000000000 28.517500000000 3.682340016891
2047 2 15.945000000000 25.925000000000 1.841170008446
2048 2 17.539500000000 25.925000000000 4.602925021114
2049 1 20.728500000000 30.461875000000 0.920585004223
2050 1 19.134000000000 30.461875000000 3.682340016891
2051 1 19.134000000000 27.869375000000 1.841170008446
2052 1 20.728500000000 27.869375000000 4.602925021114
2053 2 20.728500000000 28.517500000000 0.920585004223
2054 2 19.134000000000 28.517500000000 3.682340016891
2055 2 19.134000000000 25.925000000000 1.841170008446
2056 2 20.728500000000 25.925000000000 4.602925021114
2057 1 23.917500000000 30.461875000000 0.920585004223
2058 1 22.323000000000 30.461875000000 3.682340016891
2059 1 22.323000000000 27.869375000000 1.841170008446
2060 1 23.917500000000 27.869375000000 4.602925021114
2061 2 23.917500000000 28.517500000000 0.920585004223
2062 2 22.323000000000 28.517500000000 3.682340016891
2063 2 22.323000000000 25.925000000000 1.841170008446
2064 2 23.917500000000 25.925000000000 4.602925021114
2065 1 27.106500000000 30.461875000000 0.920585004223
2066 1 25.512000000000 30.461875000000 3.682340016891
2067 1 25.512000000000 27.869375000000 1.841170008446
2068 1 27.106500000000 27.869375000000 4.602925021114
2069 2 27.106500000000 28.517500000000 0.920585004223
2070 2 25.512000000000 28.517500000000 3.682340016891
2071 2 25.512000000000 25.925000000000 1.841170008446
2072 2 27.106500000000 25.925000000000 4.602925021114
2073 1 30.295500000000 30.461875000000 0.920585004223
2074 1 28.701000000000 30.461875000000 3.682340016891
2075 1 28.701000000000 27.869375000000 1.841170008446
2076 1 30.295500000000 27.869375000000 4.602925021114
2077 2 30.295500000000 28.517500000000 0.920585004223
2078 2 28.701000000000 28.517500000000 3.682340016891
2079 2 28.701000000000 25.925000000000 1.841170008446
2080 2 30.295500000000 25.925000000000 4.602925021114
2081 1 1.594500000000 30.461875000000 6.444095029560
2082 1 0.000000000000 30.461875000000 9.205850042229
2083 1 0.000000000000 27.869375000000 7.364680033783
2084 1 1.594500000000 27.869375000000 10.126435046451
2085 2 1.594500000000 28.517500000000 6.444095029560
2086 2 0.000000000000 28.517500000000 9.205850042229
2087 2 0.000000000000 25.925000000000 7.364680033783
2088 2 1.594500000000 25.925000000000 10.126435046451
2089 1 4.783500000000 30.461875000000 6.444095029560
2090 1 3.189000000000 30.461875000000 9.205850042229
2091 1 3.189000000000 27.869375000000 7.364680033783
2092 1 4.783500000000 27.869375000000 10.126435046451
2093 2 4.783500000000 28.517500000000 6.444095029560
2094 2 3.189000000000 28.517500000000 9.205850042229
2095 2 3.189000000000 25.925000000000 7.364680033783
2096 2 4.783500000000 25.925000000000 10.126435046451
2097 1 7.972500000000 30.461875000000 6.444095029560
2098 1 6.378000000000 30.461875000000 9.205850042229
2099 1 6.378000000000 27.869375000000 7.364680033783
2100 1 7.972500000000 27.869375000000 10.126435046451
2101 2 7.972500000000 28.517500000000 6.444095029560
2102 2 6.378000000000 28.517500000000 9.205850042229
2103 2 6.378000000000 25.925000000000 7.364680033783
2104 2 7.972500000000 25.925000000000 10.126435046451
2105 1 11.161500000000 30.461875000000 6.444095029560
2106 1 9.567000000000 30.461875000000 9.205850042229
2107 1 9.567000000000 27.869375000000 7.364680033783
2108 1 11.161500000000 27.869375000000 10.126435046451
2109 2 11.161500000000 28.517500000000 6.444095029560
2110 2 9.567000000000 28.517500000000 9.205850042229
2111 2 9.567000000000 25.925000000000 7.364680033783
2112 2 11.161500000000 25.925000000000 10.126435046451
2113 1 14.350500000000 30.461875000000 6.444095029560
2114 1 12.756000000000 30.461875000000 9.205850042229
2115 1 12.756000000000 27.869375000000 7.364680033783
2116 1 14.350500000000 27.869375000000 10.126435046451
2117 2 14.350500000000 28.517500000000 6.444095029560
2118 2 12.756000000000 28.517500000000 9.205850042229
2119 2 12.756000000000 25.925000000000 7.364680033783
2120 2 14.350500000000 25.925000000000 10.126435046451
2121 1 17.539500000000 30.461875000000 6.444095029560
2122 1 15.945000000000 30.461875000000 9.205850042229
2123 1 15.945000000000 27.869375000000 7.364680033783
2124 1 17.539500000000 27.869375000000 10.126435046451
2125 2 17.539500000000 28.517500000000 6.444095029560
2126 2 15.945000000000 28.517500000000 9.205850042229
2127 2 15.945000000000 25.925000000000 7.364680033783
2128 2 17.539500000000 25.925000000000 10.126435046451
2129 1 20.728500000000 30.461875000000 6.444095029560
2130 1 19.134000000000 30.461875000000 9.205850042229
2131 1 19.134000000000 27.869375000000 7.364680033783
2132 1 20.728500000000 27.869375000000 10.126435046451
2133 2 20.728500000000 28.517500000000 6.444095029560
2134 2 19.134000000000 28.517500000000 9.205850042229
2135 2 19.134000000000 25.925000000000 7.364680033783
2136 2 20.728500000000 25.925000000000 10.126435046451
2137 1 23.917500000000 30.461875000000 6.444095029560
2138 1 22.323000000000 30.461875000000 9.205850042229
2139 1 22.323000000000 27.869375000000 7.364680033783
2140 1 23.917500000000 27.869375000000 10.126435046451
2141 2 23.917500000000 28.517500000000 6.444095029560
2142 2 22.323000000000 28.517500000000 9.205850042229
2143 2 22.323000000000 25.925000000000 7.364680033783
2144 2 23.917500000000 25.925000000000 10.126435046451
2145 1 27.106500000000 30.461875000000 6.444095029560
2146 1 25.512000000000 30.461875000000 9.205850042229
2147 1 25.512000000000 27.869375000000 7.364680033783
2148 1 27.106500000000 27.869375000000 10.126435046451
2149 2 27.106500000000 28.517500000000 6.444095029560
2150 2 25.512000000000 28.517500000000 9.205850042229
2151 2 25.512000000000 25.925000000000 7.364680033783
2152 2 27.106500000000 25.925000000000 10.126435046451
2153 1 30.295500000000 30.461875000000 6.444095029560
2154 1 28.701000000000 30.461875000000 9.205850042229
2155 1 28.701000000000 27.869375000000 7.364680033783
2156 1 30.295500000000 27.869375000000 10.126435046451
2157 2 30.295500000000 28.517500000000 6.444095029560
2158 2 28.701000000000 28.517500000000 9.205850042229
2159 2 28.701000000000 25.925000000000 7.364680033783
2160 2 30.295500000000 25.925000000000 10.126435046451
2161 1 1.594500000000 30.461875000000 11.967605054897
2162 1 0.000000000000 30.461875000000 14.729360067566
2163 1 0.000000000000 27.869375000000 12.888190059120
2164 1 1.594500000000 27.869375000000 15.649945071789
2165 2 1.594500000000 28.517500000000 11.967605054897
2166 2 0.000000000000 28.517500000000 14.729360067566
2167 2 0.000000000000 25.925000000000 12.888190059120
2168 2 1.594500000000 25.925000000000 15.649945071789
2169 1 4.783500000000 30.461875000000 11.967605054897
2170 1 3.189000000000 30.461875000000 14.729360067566
2171 1 3.189000000000 27.869375000000 12.888190059120
2172 1 4.783500000000 27.869375000000 15.649945071789
2173 2 4.783500000000 28.517500000000 11.967605054897
2174 2 3.189000000000 28.517500000000 14.729360067566
2175 2 3.189000000000 25.925000000000 12.888190059120
2176 2 4.783500000000 25.925000000000 15.649945071789
2177 1 7.972500000000 30.461875000000 11.967605054897
2178 1 6.378000000000 30.461875000000 14.729360067566
2179 1 6.378000000000 27.869375000000 12.888190059120
2180 1 7.972500000000 27.869375000000 15.649945071789
2181 2 7.972500000000 28.517500000000 11.967605054897
2182 2 6.378000000000 28.517500000000 14.729360067566
2183 2 6.378000000000 25.925000000000 12.888190059120
2184 2 7.972500000000 25.925000000000 15.649945071789
2185 1 11.161500000000 30.461875000000 11.967605054897
2186 1 9.567000000000 30.461875000000 14.729360067566
2187 1 9.567000000000 27.869375000000 12.888190059120
2188 1 11.161500000000 27.869375000000 15.649945071789
2189 2 11.161500000000 28.517500000000 11.967605054897
2190 2 9.567000000000 28.517500000000 14.729360067566
2191 2 9.567000000000 25.925000000000 12.888190059120
2192 2 11.161500000000 25.925000000000 15.649945071789
2193 1 14.350500000000 30.461875000000 11.967605054897
2194 1 12.756000000000 30.461875000000 14.729360067566
2195 1 12.756000000000 27.869375000000 12.888190059120
2196 1 14.350500000000 27.869375000000 15.649945071789
2197 2 14.350500000000 28.517500000000 11.967605054897
2198 2 12.756000000000 28.517500000000 14.729360067566
2199 2 12.756000000000 25.925000000000 12.888190059120
2200 2 14.350500000000 25.925000000000 15.649945071789
2201 1 17.539500000000 30.461875000000 11.967605054897
2202 1 15.945000000000 30.461875000000 14.729360067566
2203 1 15.945000000000 27.869375000000 12.888190059120
2204 1 17.539500000000 27.869375000000 15.649945071789
2205 2 17.539500000000 28.517500000000 11.967605054897
2206 2 15.945000000000 28.517500000000 14.729360067566
2207 2 15.945000000000 25.925000000000 12.888190059120
2208 2 17.539500000000 25.925000000000 15.649945071789
2209 1 20.728500000000 30.461875000000 11.967605054897
2210 1 19.134000000000 30.461875000000 14.729360067566
2211 1 19.134000000000 27.869375000000 12.888190059120
2212 1 20.728500000000 27.869375000000 15.649945071789
2213 2 20.728500000000 28.517500000000 11.967605054897
2214 2 19.134000000000 28.517500000000 14.729360067566
2215 2 19.134000000000 25.925000000000 12.888190059120
2216 2 20.728500000000 25.925000000000 15.649945071789
2217 1 23.917500000000 30.461875000000 11.967605054897
2218 1 22.323000000000 30.461875000000 14.729360067566
2219 1 22.323000000000 27.869375000000 12.888190059120
2220 1 23.917500000000 27.869375000000 15.649945071789
2221 2 23.917500000000 28.517500000000 11.967605054897
2222 2 22.323000000000 28.517500000000 14.729360067566
2223 2 22.323000000000 25.925000000000 12.888190059120
2224 2 23.917500000000 25.925000000000 15.649945071789
2225 1 27.106500000000 30.461875000000 11.967605054897
2226 1 25.512000000000 30.461875000000 14.729360067566
2227 1 25.512000000000 27.869375000000 12.888190059120
2228 1 27.106500000000 27.869375000000 15.649945071789
2229 2 27.106500000000 28.517500000000 11.967605054897
2230 2 25.512000000000 28.517500000000 14.729360067566
2231 2 25.512000000000 25.925000000000 12.888190059120
2232 2 27.106500000000 25.925000000000 15.649945071789
2233 1 30.295500000000 30.461875000000 11.967605054897
2234 1 28.701000000000 30.461875000000 14.729360067566
2235 1 28.701000000000 27.869375000000 12.888190059120
2236 1 30.295500000000 27.869375000000 15.649945071789
2237 2 30.295500000000 28.517500000000 11.967605054897
2238 2 28.701000000000 28.517500000000 14.729360067566
2239 2 28.701000000000 25.925000000000 12.888190059120
2240 2 30.295500000000 25.925000000000 15.649945071789
2241 1 1.594500000000 30.461875000000 17.491115080234
2242 1 0.000000000000 30.461875000000 20.252870092903
2243 1 0.000000000000 27.869375000000 18.411700084457
2244 1 1.594500000000 27.869375000000 21.173455097126
2245 2 1.594500000000 28.517500000000 17.491115080234
2246 2 0.000000000000 28.517500000000 20.252870092903
2247 2 0.000000000000 25.925000000000 18.411700084457
2248 2 1.594500000000 25.925000000000 21.173455097126
2249 1 4.783500000000 30.461875000000 17.491115080234
2250 1 3.189000000000 30.461875000000 20.252870092903
2251 1 3.189000000000 27.869375000000 18.411700084457
2252 1 4.783500000000 27.869375000000 21.173455097126
2253 2 4.783500000000 28.517500000000 17.491115080234
2254 2 3.189000000000 28.517500000000 20.252870092903
2255 2 3.189000000000 25.925000000000 18.411700084457
2256 2 4.783500000000 25.925000000000 21.173455097126
2257 1 7.972500000000 30.461875000000 17.491115080234
2258 1 6.378000000000 30.461875000000 20.252870092903
2259 1 6.378000000000 27.869375000000 18.411700084457
2260 1 7.972500000000 27.869375000000 21.173455097126
2261 2 7.972500000000 28.517500000000 17.491115080234
2262 2 6.378000000000 28.517500000000 20.252870092903
2263 2 6.378000000000 25.925000000000 18.411700084457
2264 2 7.972500000000 25.925000000000 21.173455097126
2265 1 11.161500000000 30.461875000000 17.491115080234
2266 1 9.567000000000 30.461875000000 20.252870092903
2267 1 9.567000000000 27.869375000000 18.411700084457
2268 1 11.161500000000 27.869375000000 21.173455097126
2269 2 11.161500000000 28.517500000000 17.491115080234
2270 2 9.567000000000 28.517500000000 20.252870092903
2271 2 9.567000000000 25.925000000000 18.411700084457
2272 2 11.161500000000 25.925000000000 21.173455097126
2273 1 14.350500000000 30.461875000000 17.491115080234
2274 1 12.756000000000 30.461875000000 20.252870092903
2275 1 12.756000000000 27.869375000000 18.411700084457
2276 1 14.350500000000 27.869375000000 21.173455097126
2277 2 14.350500000000 28.517500000000 17.491115080234
2278 2 12.756000000000 28.517500000000 20.252870092903
2279 2 12.756000000000 25.925000000000 18.411700084457
2280 2 14.350500000000 25.925000000000 21.173455097126
2281 1 17.539500000000 30.461875000000 17.491115080234
2282 1 15.945000000000 30.461875000000 20.252870092903
2283 1 15.945000000000 27.869375000000 18.411700084457
2284 1 17.539500000000 27.869375000000 21.173455097126
2285 2 17.539500000000 28.517500000000 17.491115080234
2286 2 15.945000000000 28.517500000000 20.252870092903
2287 2 15.945000000000 25.925000000000 18.411700084457
2288 2 17.539500000000 25.925000000000 21.173455097126
2289 1 20.728500000000 30.461875000000 17.491115080234
2290 1 19.134000000000 30.461875000000 20.252870092903
2291 1 19.134000000000 27.869375000000 18.411700084457
2292 1 20.728500000000 27.869375000000 21.173455097126
2293 2 20.728500000000 28.517500000000 17.491115080234
2294 2 19.134000000000 28.517500000000 20.252870092903
2295 2 19.134000000000 25.925000000000 18.411700084457
2296 2 20.728500000000 25.925000000000 21.173455097126
2297 1 23.917500000000 30.461875000000 17.491115080234
2298 1 22.323000000000 30.461875000000 20.252870092903
2299 1 22.323000000000 27.869375000000 18.411700084457
2300 1 23.917500000000 27.869375000000 21.173455097126
2301 2 23.917500000000 28.517500000000 17.491115080234
2302 2 22.323000000000 28.517500000000 20.252870092903
2303 2 22.323000000000 25.925000000000 18.411700084457
2304 2 23.917500000000 25.925000000000 21.173455097126
2305 1 27.106500000000 30.461875000000 17.491115080234
2306 1 25.512000000000 30.461875000000 20.252870092903
2307 1 25.512000000000 27.869375000000 18.411700084457
2308 1 27.106500000000 27.869375000000 21.173455097126
2309 2 27.106500000000 28.517500000000 17.491115080234
2310 2 25.512000000000 28.517500000000 20.252870092903
2311 2 25.512000000000 25.925000000000 18.411700084457
2312 2 27.106500000000 25.925000000000 21.173455097126
2313 1 30.295500000000 30.461875000000 17.491115080234
2314 1 28.701000000000 30.461875000000 20.252870092903
2315 1 28.701000000000 27.869375000000 18.411700084457
2316 1 30.295500000000 27.869375000000 21.173455097126
2317 2 30.295500000000 28.517500000000 17.491115080234
2318 2 28.701000000000 28.517500000000 20.252870092903
2319 2 28.701000000000 25.925000000000 18.411700084457
2320 2 30.295500000000 25.925000000000 21.173455097126
2321 1 1.594500000000 30.461875000000 23.014625105571
2322 1 0.000000000000 30.461875000000 25.776380118240
2323 1 0.000000000000 27.869375000000 23.935210109794
2324 1 1.594500000000 27.869375000000 26.696965122463
2325 2 1.594500000000 28.517500000000 23.014625105571
2326 2 0.000000000000 28.517500000000 25.776380118240
2327 2 0.000000000000 25.925000000000 23.935210109794
2328 2 1.594500000000 25.925000000000 26.696965122463
2329 1 4.783500000000 30.461875000000 23.014625105571
2330 1 3.189000000000 30.461875000000 25.776380118240
2331 1 3.189000000000 27.869375000000 23.935210109794
2332 1 4.783500000000 27.869375000000 26.696965122463
2333 2 4.783500000000 28.517500000000 23.014625105571
2334 2 3.189000000000 28.517500000000 25.776380118240
2335 2 3.189000000000 25.925000000000 23.935210109794
2336 2 4.783500000000 25.925000000000 26.696965122463
2337 1 7.972500000000 30.461875000000 23.014625105571
2338 1 6.378000000000 30.461875000000 25.776380118240
2339 1 6.378000000000 27.869375000000 23.935210109794
2340 1 7.972500000000 27.869375000000 26.696965122463
2341 2 7.972500000000 28.517500000000 23.014625105571
2342 2 6.378000000000 28.517500000000 25.776380118240
2343 2 6.378000000000 25.925000000000 23.935210109794
2344 2 7.972500000000 25.925000000000 26.696965122463
2345 1 11.161500000000 30.461875000000 23.014625105571
2346 1 9.567000000000 30.461875000000 25.776380118240
2347 1 9.567000000000 27.869375000000 23.935210109794
2348 1 11.161500000000 27.869375000000 26.696965122463
2349 2 11.161500000000 28.517500000000 23.014625105571
2350 2 9.567000000000 28.517500000000 25.776380118240
2351 2 9.567000000000 25.925000000000 23.935210109794
2352 2 11.161500000000 25.925000000000 26.696965122463
2353 1 14.350500000000 30.461875000000 23.014625105571
2354 1 12.756000000000 30.461875000000 25.776380118240
2355 1 12.756000000000 27.869375000000 23.935210109794
2356 1 14.350500000000 27.869375000000 26.696965122463
2357 2 14.350500000000 28.517500000000 23.014625105571
2358 2 12.756000000000 28.517500000000 25.776380118240
2359 2 12.756000000000 25.925000000000 23.935210109794
2360 2 14.350500000000 25.925000000000 26.696965122463
2361 1 17.539500000000 30.461875000000 23.014625105571
2362 1 15.945000000000 30.461875000000 25.776380118240
2363 1 15.945000000000 27.869375000000 23.935210109794
2364 1 17.539500000000 27.869375000000 26.696965122463
2365 2 17.539500000000 28.517500000000 23.014625105571
2366 2 15.945000000000 28.517500000000 25.776380118240
2367 2 15.945000000000 25.925000000000 23.935210109794
2368 2 17.539500000000 25.925000000000 26.696965122463
2369 1 20.728500000000 30.461875000000 23.014625105571
2370 1 19.134000000000 30.461875000000 25.776380118240
2371 1 19.134000000000 27.869375000000 23.935210109794
2372 1 20.728500000000 27.869375000000 26.696965122463
2373 2 20.728500000000 28.517500000000 23.014625105571
2374 2 19.134000000000 28.517500000000 25.776380118240
2375 2 19.134000000000 25.925000000000 23.935210109794
2376 2 20.728500000000 25.925000000000 26.696965122463
2377 1 23.917500000000 30.461875000000 23.014625105571
2378 1 22.323000000000 30.461875000000 25.776380118240
2379 1 22.323000000000 27.869375000000 23.935210109794
2380 1 23.917500000000 27.869375000000 26.696965122463
2381 2 23.917500000000 28.517500000000 23.014625105571
2382 2 22.323000000000 28.517500000000 25.776380118240
2383 2 22.323000000000 25.925000000000 23.935210109794
2384 2 23.917500000000 25.925000000000 26.696965122463
2385 1 27.106500000000 30.461875000000 23.014625105571
2386 1 25.512000000000 30.461875000000 25.776380118240
2387 1 25.512000000000 27.869375000000 23.935210109794
2388 1 27.106500000000 27.869375000000 26.696965122463
2389 2 27.106500000000 28.517500000000 23.014625105571
2390 2 25.512000000000 28.517500000000 25.776380118240
2391 2 25.512000000000 25.925000000000 23.935210109794
2392 2 27.106500000000 25.925000000000 26.696965122463
2393 1 30.295500000000 30.461875000000 23.014625105571
2394 1 28.701000000000 30.461875000000 25.776380118240
2395 1 28.701000000000 27.869375000000 23.935210109794
2396 1 30.295500000000 27.869375000000 26.696965122463
2397 2 30.295500000000 28.517500000000 23.014625105571
2398 2 28.701000000000 28.517500000000 25.776380118240
2399 2 28.701000000000 25.925000000000 23.935210109794
2400 2 30.295500000000 25.925000000000 26.696965122463
2401 1 1.594500000000 35.646875000000 0.920585004223
2402 1 0.000000000000 35.646875000000 3.682340016891
2403 1 0.000000000000 33.054375000000 1.841170008446
2404 1 1.594500000000 33.054375000000 4.602925021114
2405 2 1.594500000000 33.702500000000 0.920585004223
2406 2 0.000000000000 33.702500000000 3.682340016891
2407 2 0.000000000000 31.110000000000 1.841170008446
2408 2 1.594500000000 31.110000000000 4.602925021114
2409 1 4.783500000000 35.646875000000 0.920585004223
2410 1 3.189000000000 35.646875000000 3.682340016891
2411 1 3.189000000000 33.054375000000 1.841170008446
2412 1 4.783500000000 33.054375000000 4.602925021114
2413 2 4.783500000000 33.702500000000 0.920585004223
2414 2 3.189000000000 33.702500000000 3.682340016891
2415 2 3.189000000000 31.110000000000 1.841170008446
2416 2 4.783500000000 31.110000000000 4.602925021114
2417 1 7.972500000000 35.646875000000 0.920585004223
2418 1 6.378000000000 35.646875000000 3.682340016891
2419 1 6.378000000000 33.054375000000 1.841170008446
2420 1 7.972500000000 33.054375000000 4.602925021114
2421 2 7.972500000000 33.702500000000 0.920585004223
2422 2 6.378000000000 33.702500000000 3.682340016891
2423 2 6.378000000000 31.110000000000 1.841170008446
2424 2 7.972500000000 31.110000000000 4.602925021114
2425 1 11.161500000000 35.646875000000 0.920585004223
2426 1 9.567000000000 35.646875000000 3.682340016891
2427 1 9.567000000000 33.054375000000 1.841170008446
2428 1 11.161500000000 33.054375000000 4.602925021114
2429 2 11.161500000000 33.702500000000 0.920585004223
2430 2 9.567000000000 33.702500000000 3.682340016891
2431 2 9.567000000000 31.110000000000 1.841170008446
2432 2 11.161500000000 31.110000000000 4.602925021114
2433 1 14.350500000000 35.646875000000 0.920585004223
2434 1 12.756000000000 35.646875000000 3.682340016891
2435 1 12.756000000000 33.054375000000 1.841170008446
2436 1 14.350500000000 33.054375000000 4.602925021114
2437 2 14.350500000000 33.702500000000 0.920585004223
2438 2 12.756000000000 33.702500000000 3.682340016891
2439 2 12.756000000000 31.110000000000 1.841170008446
2440 2 14.350500000000 31.110000000000 4.602925021114
2441 1 17.539500000000 35.646875000000 0.920585004223
2442 1 15.945000000000 35.646875000000 3.682340016891
2443 1 15.945000000000 33.054375000000 1.841170008446
2444 1 17.539500000000 33.054375000000 4.602925021114
2445 2 17.539500000000 33.702500000000 0.920585004223
2446 2 15.945000000000 33.702500000000 3.682340016891
2447 2 15.945000000000 31.110000000000 1.841170008446
2448 2 17.539500000000 31.110000000000 4.602925021114
2449 1 20.728500000000 35.646875000000 0.920585004223
2450 1 19.134000000000 35.646875000000 3.682340016891
2451 1 19.134000000000 33.054375000000 1.841170008446
2452 1 20.728500000000 33.054375000000 4.602925021114
2453 2 20.728500000000 33.702500000000 0.920585004223
2454 2 19.134000000000 33.702500000000 3.682340016891
2455 2 19.134000000000 31.110000000000 1.841170008446
2456 2 20.728500000000 31.110000000000 4.602925021114
2457 1 23.917500000000 35.646875000000 0.920585004223
2458 1 22.323000000000 35.646875000000 3.682340016891
2459 1 22.323000000000 33.054375000000 1.841170008446
2460 1 23.917500000000 33.054375000000 4.602925021114
2461 2 23.917500000000 33.702500000000 0.920585004223
2462 2 22.323000000000 33.702500000000 3.682340016891
2463 2 22.323000000000 31.110000000000 1.841170008446
2464 2 23.917500000000 31.110000000000 4.602925021114
2465 1 27.106500000000 35.646875000000 0.920585004223
2466 1 25.512000000000 35.646875000000 3.682340016891
2467 1 25.512000000000 33.054375000000 1.841170008446
2468 1 27.106500000000 33.054375000000 4.602925021114
2469 2 27.106500000000 33.702500000000 0.920585004223
2470 2 25.512000000000 33.702500000000 3.682340016891
2471 2 25.512000000000 31.110000000000 1.841170008446
2472 2 27.106500000000 31.110000000000 4.602925021114
2473 1 30.295500000000 35.646875000000 0.920585004223
2474 1 28.701000000000 35.646875000000 3.682340016891
2475 1 28.701000000000 33.054375000000 1.841170008446
2476 1 30.295500000000 33.054375000000 4.602925021114
2477 2 30.295500000000 33.702500000000 0.920585004223
2478 2 28.701000000000 33.702500000000 3.682340016891
2479 2 28.701000000000 31.110000000000 1.841170008446
2480 2 30.295500000000 31.110000000000 4.602925021114
2481 1 1.594500000000 35.646875000000 6.444095029560
2482 1 0.000000000000 35.646875000000 9.205850042229
2483 1 0.000000000000 33.054375000000 7.364680033783
2484 1 1.594500000000 33.054375000000 10.126435046451
2485 2 1.594500000000 33.702500000000 6.444095029560
2486 2 0.000000000000 33.702500000000 9.205850042229
2487 2 0.000000000000 31.110000000000 7.364680033783
2488 2 1.594500000000 31.110000000000 10.126435046451
2489 1 4.783500000000 35.646875000000 6.444095029560
2490 1 3.189000000000 35.646875000000 9.205850042229
2491 1 3.189000000000 33.054375000000 7.364680033783
2492 1 4.783500000000 33.054375000000 10.126435046451
2493 2 4.783500000000 33.702500000000 6.444095029560
2494 2 3.189000000000 33.702500000000 9.205850042229
2495 2 3.189000000000 31.110000000000 7.364680033783
2496 2 4.783500000000 31.110000000000 10.126435046451
2497 1 7.972500000000 35.646875000000 6.444095029560
2498 1 6.378000000000 35.646875000000 9.205850042229
2499 1 6.378000000000 33.054375000000 7.364680033783
2500 1 7.972500000000 33.054375000000 10.126435046451
2501 2 7.972500000000 33.702500000000 6.444095029560
2502 2 6.378000000000 33.702500000000 9.205850042229
2503 2 6.378000000000 31.110000000000 7.364680033783
2504 2 7.972500000000 31.110000000000 10.126435046451
2505 1 11.161500000000 35.646875000000 6.444095029560
2506 1 9.567000000000 35.646875000000 9.205850042229
2507 1 9.567000000000 33.054375000000 7.364680033783
2508 1 11.161500000000 33.054375000000 10.126435046451
2509 2 11.161500000000 33.702500000000 6.444095029560
2510 2 9.567000000000 33.702500000000 9.205850042229
2511 2 9.567000000000 31.110000000000 7.364680033783
2512 2 11.161500000000 31.110000000000 10.126435046451
2513 1 14.350500000000 35.646875000000 6.444095029560
2514 1 12.756000000000 35.646875000000 9.205850042229
2515 1 12.756000000000 33.054375000000 7.364680033783
2516 1 14.350500000000 33.054375000000 10.126435046451
2517 2 14.350500000000 33.702500000000 6.444095029560
2518 2 12.756000000000 33.702500000000 9.205850042229
2519 2 12.756000000000 31.110000000000 7.364680033783
2520 2 14.350500000000 31.110000000000 10.126435046451
2521 1 17.539500000000 35.646875000000 6.444095029560
2522 1 15.945000000000 35.646875000000 9.205850042229
2523 1 15.945000000000 33.054375000000 7.364680033783
2524 1 17.539500000000 33.054375000000 10.126435046451
2525 2 17.539500000000 33.702500000000 6.444095029560
2526 2 15.945000000000 33.702500000000 9.205850042229
2527 2 15.945000000000 31.110000000000 7.364680033783
2528 2 17.539500000000 31.110000000000 10.126435046451
2529 1 20.728500000000 35.646875000000 6.444095029560
2530 1 19.134000000000 35.646875000000 9.205850042229
2531 1 19.134000000000 33.054375000000 7.364680033783
2532 1 20.728500000000 33.054375000000 10.126435046451
2533 2 20.728500000000 33.702500000000 6.444095029560
2534 2 19.134000000000 33.702500000000 9.205850042229
2535 2 19.134000000000 31.110000000000 7.364680033783
2536 2 20.728500000000 31.110000000000 10.126435046451
2537 1 23.917500000000 35.646875000000 6.444095029560
2538 1 22.323000000000 35.646875000000 9.205850042229
2539 1 22.323000000000 33.054375000000 7.364680033783
2540 1 23.917500000000 33.054375000000 10.126435046451
2541 2 23.917500000000 33.702500000000 6.444095029560
2542 2 22.323000000000 33.702500000000 9.205850042229
2543 2 22.323000000000 31.110000000000 7.364680033783
2544 2 23.917500000000 31.110000000000 10.126435046451
2545 1 27.106500000000 35.646875000000 6.444095029560
2546 1 25.512000000000 35.646875000000 9.205850042229
2547 1 25.512000000000 33.054375000000 7.364680033783
2548 1 27.106500000000 33.054375000000 10.126435046451
2549 2 27.106500000000 33.702500000000 6.444095029560
2550 2 25.512000000000 33.702500000000 9.205850042229
2551 2 25.512000000000 31.110000000000 7.364680033783
2552 2 27.106500000000 31.110000000000 10.126435046451
2553 1 30.295500000000 35.646875000000 6.444095029560
2554 1 28.701000000000 35.646875000000 9.205850042229
2555 1 28.701000000000 33.054375000000 7.364680033783
2556 1 30.295500000000 33.054375000000 10.126435046451
2557 2 30.295500000000 33.702500000000 6.444095029560
2558 2 28.701000000000 33.702500000000 9.205850042229
2559 2 28.701000000000 31.110000000000 7.364680033783
2560 2 30.295500000000 31.110000000000 10.126435046451
2561 1 1.594500000000 35.646875000000 11.967605054897
2562 1 0.000000000000 35.646875000000 14.729360067566
2563 1 0.000000000000 33.054375000000 12.888190059120
2564 1 1.594500000000 33.054375000000 15.649945071789
2565 2 1.594500000000 33.702500000000 11.967605054897
2566 2 0.000000000000 33.702500000000 14.729360067566
2567 2 0.000000000000 31.110000000000 12.888190059120
2568 2 1.594500000000 31.110000000000 15.649945071789
2569 1 4.783500000000 35.646875000000 11.967605054897
2570 1 3.189000000000 35.646875000000 14.729360067566
2571 1 3.189000000000 33.054375000000 12.888190059120
2572 1 4.783500000000 33.054375000000 15.649945071789
2573 2 4.783500000000 33.702500000000 11.967605054897
2574 2 3.189000000000 33.702500000000 14.729360067566
2575 2 3.189000000000 31.110000000000 12.888190059120
2576 2 4.783500000000 31.110000000000 15.649945071789
2577 1 7.972500000000 35.646875000000 11.967605054897
2578 1 6.378000000000 35.646875000000 14.729360067566
2579 1 6.378000000000 33.054375000000 12.888190059120
2580 1 7.972500000000 33.054375000000 15.649945071789
2581 2 7.972500000000 33.702500000000 11.967605054897
2582 2 6.378000000000 33.702500000000 14.729360067566
2583 2 6.378000000000 31.110000000000 12.888190059120
2584 2 7.972500000000 31.110000000000 15.649945071789
2585 1 11.161500000000 35.646875000000 11.967605054897
2586 1 9.567000000000 35.646875000000 14.729360067566
2587 1 9.567000000000 33.054375000000 12.888190059120
2588 1 11.161500000000 33.054375000000 15.649945071789
2589 2 11.161500000000 33.702500000000 11.967605054897
2590 2 9.567000000000 33.702500000000 14.729360067566
2591 2 9.567000000000 31.110000000000 12.888190059120
2592 2 11.161500000000 31.110000000000 15.649945071789
2593 1 14.350500000000 35.646875000000 11.967605054897
2594 1 12.756000000000 35.646875000000 14.729360067566
2595 1 12.756000000000 33.054375000000 12.888190059120
2596 1 14.350500000000 33.054375000000 15.649945071789
2597 2 14.350500000000 33.702500000000 11.967605054897
2598 2 12.756000000000 33.702500000000 14.729360067566
2599 2 12.756000000000 31.110000000000 12.888190059120
2600 2 14.350500000000 31.110000000000 15.649945071789
2601 1 17.539500000000 35.646875000000 11.967605054897
2602 1 15.945000000000 35.646875000000 14.729360067566
2603 1 15.945000000000 33.054375000000 12.888190059120
2604 1 17.539500000000 33.054375000000 15.649945071789
2605 2 17.539500000000 33.702500000000 11.967605054897
2606 2 15.945000000000 33.702500000000 14.729360067566
2607 2 15.945000000000 31.110000000000 12.888190059120
2608 2 17.539500000000 31.110000000000 15.649945071789
2609 1 20.728500000000 35.646875000000 11.967605054897
2610 1 19.134000000000 35.646875000000 14.729360067566
2611 1 19.134000000000 33.054375000000 12.888190059120
2612 1 20.728500000000 33.054375000000 15.649945071789
2613 2 20.728500000000 33.702500000000 11.967605054897
2614 2 19.134000000000 33.702500000000 14.729360067566
2615 2 19.134000000000 31.110000000000 12.888190059120
2616 2 20.728500000000 31.110000000000 15.649945071789
2617 1 23.917500000000 35.646875000000 11.967605054897
2618 1 22.323000000000 35.646875000000 14.729360067566
2619 1 22.323000000000 33.054375000000 12.888190059120
2620 1 23.917500000000 33.054375000000 15.649945071789
2621 2 23.917500000000 33.702500000000 11.967605054897
2622 2 22.323000000000 33.702500000000 14.729360067566
2623 2 22.323000000000 31.110000000000 12.888190059120
2624 2 23.917500000000 31.110000000000 15.649945071789
2625 1 27.106500000000 35.646875000000 11.967605054897
2626 1 25.512000000000 35.646875000000 14.729360067566
2627 1 25.512000000000 33.054375000000 12.888190059120
2628 1 27.106500000000 33.054375000000 15.649945071789
2629 2 27.106500000000 33.702500000000 11.967605054897
2630 2 25.512000000000 33.702500000000 14.729360067566
2631 2 25.512000000000 31.110000000000 12.888190059120
2632 2 27.106500000000 31.110000000000 15.649945071789
2633 1 30.295500000000 35.646875000000 11.967605054897
2634 1 28.701000000000 35.646875000000 14.729360067566
2635 1 28.701000000000 33.054375000000 12.888190059120
2636 1 30.295500000000 33.054375000000 15.649945071789
2637 2 30.295500000000 33.702500000000 11.967605054897
2638 2 28.701000000000 33.702500000000 14.729360067566
2639 2 28.701000000000 31.110000000000 12.888190059120
2640 2 30.295500000000 31.110000000000 15.649945071789
2641 1 1.594500000000 35.646875000000 17.491115080234
2642 1 0.000000000000 35.646875000000 20.252870092903
2643 1 0.000000000000 33.054375000000 18.411700084457
2644 1 1.594500000000 33.054375000000 21.173455097126
2645 2 1.594500000000 33.702500000000 17.491115080234
2646 2 0.000000000000 33.702500000000 20.252870092903
2647 2 0.000000000000 31.110000000000 18.411700084457
2648 2 1.594500000000 31.110000000000 21.173455097126
2649 1 4.783500000000 35.646875000000 17.491115080234
2650 1 3.189000000000 35.646875000000 20.252870092903
2651 1 3.189000000000 33.054375000000 18.411700084457
2652 1 4.783500000000 33.054375000000 21.173455097126
2653 2 4.783500000000 33.702500000000 17.491115080234
2654 2 3.189000000000 33.702500000000 20.252870092903
2655 2 3.189000000000 31.110000000000 18.411700084457
2656 2 4.783500000000 31.110000000000 21.173455097126
2657 1 7.972500000000 35.646875000000 17.491115080234
2658 1 6.378000000000 35.646875000000 20.252870092903
2659 1 6.378000000000 33.054375000000 18.411700084457
2660 1 7.972500000000 33.054375000000 21.173455097126
2661 2 7.972500000000 33.702500000000 17.491115080234
2662 2 6.378000000000 33.702500000000 20.252870092903
2663 2 6.378000000000 31.110000000000 18.411700084457
2664 2 7.972500000000 31.110000000000 21.173455097126
2665 1 11.161500000000 35.646875000000 17.491115080234
2666 1 9.567000000000 35.646875000000 20.252870092903
2667 1 9.567000000000 33.054375000000 18.411700084457
2668 1 11.161500000000 33.054375000000 21.173455097126
2669 2 11.161500000000 33.702500000000 17.491115080234
2670 2 9.567000000000 33.702500000000 20.252870092903
2671 2 9.567000000000 31.110000000000 18.411700084457
2672 2 11.161500000000 31.110000000000 21.173455097126
2673 1 14.350500000000 35.646875000000 17.491115080234
2674 1 12.756000000000 35.646875000000 20.252870092903
2675 1 12.756000000000 33.054375000000 18.411700084457
2676 1 14.350500000000 33.054375000000 21.173455097126
2677 2 14.350500000000 33.702500000000 17.491115080234
2678 2 12.756000000000 33.702500000000 20.252870092903
2679 2 12.756000000000 31.110000000000 18.411700084457
2680 2 14.350500000000 31.110000000000 21.173455097126
2681 1 17.539500000000 35.646875000000 17.491115080234
2682 1 15.945000000000 35.646875000000 20.252870092903
2683 1 15.945000000000 33.054375000000 18.411700084457
2684 1 17.539500000000 33.054375000000 21.173455097126
2685 2 17.539500000000 33.702500000000 17.491115080234
2686 2 15.945000000000 33.702500000000 20.252870092903
2687 2 15.945000000000 31.110000000000 18.411700084457
2688 2 17.539500000000 31.110000000000 21.173455097126
2689 1 20.728500000000 35.646875000000 17.491115080234
2690 1 19.134000000000 35.646875000000 20.252870092903
2691 1 19.134000000000 33.054375000000 18.411700084457
2692 1 20.728500000000 33.054375000000 21.173455097126
2693 2 20.728500000000 33.702500000000 17.491115080234
2694 2 19.134000000000 33.702500000000 20.252870092903
2695 2 19.134000000000 31.110000000000 18.411700084457
2696 2 20.728500000000 31.110000000000 21.173455097126
2697 1 23.917500000000 35.646875000000 17.491115080234
2698 1 22.323000000000 35.646875000000 20.252870092903
2699 1 22.323000000000 33.054375000000 18.411700084457
2700 1 23.917500000000 33.054375000000 21.173455097126
2701 2 23.917500000000 33.702500000000 17.491115080234
2702 2 22.323000000000 33.702500000000 20.252870092903
2703 2 22.323000000000 31.110000000000 18.411700084457
2704 2 23.917500000000 31.110000000000 21.173455097126
2705 1 27.106500000000 35.646875000000 17.491115080234
2706 1 25.512000000000 35.646875000000 20.252870092903
2707 1 25.512000000000 33.054375000000 18.411700084457
2708 1 27.106500000000 33.054375000000 21.173455097126
2709 2 27.106500000000 33.702500000000 17.491115080234
2710 2 25.512000000000 33.702500000000 20.252870092903
2711 2 25.512000000000 31.110000000000 18.411700084457
2712 2 27.106500000000 31.110000000000 21.173455097126
2713 1 30.295500000000 35.646875000000 17.491115080234
2714 1 28.701000000000 35.646875000000 20.252870092903
2715 1 28.701000000000 33.054375000000 18.411700084457
2716 1 30.295500000000 33.054375000000 21.173455097126
2717 2 30.295500000000 33.702500000000 17.491115080234
2718 2 28.701000000000 33.702500000000 20.252870092903
2719 2 28.701000000000 31.110000000000 18.411700084457
2720 2 30.295500000000 31.110000000000 21.173455097126
2721 1 1.594500000000 35.646875000000 23.014625105571
2722 1 0.000000000000 35.646875000000 25.776380118240
2723 1 0.000000000000 33.054375000000 23.935210109794
2724 1 1.594500000000 33.054375000000 26.696965122463
2725 2 1.594500000000 33.702500000000 23.014625105571
2726 2 0.000000000000 33.702500000000 25.776380118240
2727 2 0.000000000000 31.110000000000 23.935210109794
2728 2 1.594500000000 31.110000000000 26.696965122463
2729 1 4.783500000000 35.646875000000 23.014625105571
2730 1 3.189000000000 35.646875000000 25.776380118240
2731 1 3.189000000000 33.054375000000 23.935210109794
2732 1 4.783500000000 33.054375000000 26.696965122463
2733 2 4.783500000000 33.702500000000 23.014625105571
2734 2 3.189000000000 33.702500000000 25.776380118240
2735 2 3.189000000000 31.110000000000 23.935210109794
2736 2 4.783500000000 31.110000000000 26.696965122463
2737 1 7.972500000000 35.646875000000 23.014625105571
2738 1 6.378000000000 35.646875000000 25.776380118240
2739 1 6.378000000000 33.054375000000 23.935210109794
2740 1 7.972500000000 33.054375000000 26.696965122463
2741 2 7.972500000000 33.702500000000 23.014625105571
2742 2 6.378000000000 33.702500000000 25.776380118240
2743 2 6.378000000000 31.110000000000 23.935210109794
2744 2 7.972500000000 31.110000000000 26.696965122463
2745 1 11.161500000000 35.646875000000 23.014625105571
2746 1 9.567000000000 35.646875000000 25.776380118240
2747 1 9.567000000000 33.054375000000 23.935210109794
2748 1 11.161500000000 33.054375000000 26.696965122463
2749 2 11.161500000000 33.702500000000 23.014625105571
2750 2 9.567000000000 33.702500000000 25.776380118240
2751 2 9.567000000000 31.110000000000 23.935210109794
2752 2 11.161500000000 31.110000000000 26.696965122463
2753 1 14.350500000000 35.646875000000 23.014625105571
2754 1 12.756000000000 35.646875000000 25.776380118240
2755 1 12.756000000000 33.054375000000 23.935210109794
2756 1 14.350500000000 33.054375000000 26.696965122463
2757 2 14.350500000000 33.702500000000 23.014625105571
2758 2 12.756000000000 33.702500000000 25.776380118240
2759 2 12.756000000000 31.110000000000 23.935210109794
2760 2 14.350500000000 31.110000000000 26.696965122463
2761 1 17.539500000000 35.646875000000 23.014625105571
2762 1 15.945000000000 35.646875000000 25.776380118240
2763 1 15.945000000000 33.054375000000 23.935210109794
2764 1 17.539500000000 33.054375000000 26.696965122463
2765 2 17.539500000000 33.702500000000 23.014625105571
2766 2 15.945000000000 33.702500000000 25.776380118240
2767 2 15.945000000000 31.110000000000 23.935210109794
2768 2 17.539500000000 31.110000000000 26.696965122463
2769 1 20.728500000000 35.646875000000 23.014625105571
2770 1 19.134000000000 35.646875000000 25.776380118240
2771 1 19.134000000000 33.054375000000 23.935210109794
2772 1 20.728500000000 33.054375000000 26.696965122463
2773 2 20.728500000000 33.702500000000 23.014625105571
2774 2 19.134000000000 33.702500000000 25.776380118240
2775 2 19.134000000000 31.110000000000 23.935210109794
2776 2 20.728500000000 31.110000000000 26.696965122463
2777 1 23.917500000000 35.646875000000 23.014625105571
2778 1 22.323000000000 35.646875000000 25.776380118240
2779 1 22.323000000000 33.054375000000 23.935210109794
2780 1 23.917500000000 33.054375000000 26.696965122463
2781 2 23.917500000000 33.702500000000 23.014625105571
2782 2 22.323000000000 33.702500000000 25.776380118240
2783 2 22.323000000000 31.110000000000 23.935210109794
2784 2 23.917500000000 31.110000000000 26.696965122463
2785 1 27.106500000000 35.646875000000 23.014625105571
2786 1 25.512000000000 35.646875000000 25.776380118240
2787 1 25.512000000000 33.054375000000 23.935210109794
2788 1 27.106500000000 33.054375000000 26.696965122463
2789 2 27.106500000000 33.702500000000 23.014625105571
2790 2 25.512000000000 33.702500000000 25.776380118240
2791 2 25.512000000000 31.110000000000 23.935210109794
2792 2 27.106500000000 31.110000000000 26.696965122463
2793 1 30.295500000000 35.646875000000 23.014625105571
2794 1 28.701000000000 35.646875000000 25.776380118240
2795 1 28.701000000000 33.054375000000 23.935210109794
2796 1 30.295500000000 33.054375000000 26.696965122463
2797 2 30.295500000000 33.702500000000 23.014625105571
2798 2 28.701000000000 33.702500000000 25.776380118240
2799 2 28.701000000000 31.110000000000 23.935210109794
2800 2 30.295500000000 31.110000000000 26.696965122463
2801 1 1.594500000000 40.831875000000 0.920585004223
2802 1 0.000000000000 40.831875000000 3.682340016891
2803 1 0.000000000000 38.239375000000 1.841170008446
2804 1 1.594500000000 38.239375000000 4.602925021114
2805 2 1.594500000000 38.887500000000 0.920585004223
2806 2 0.000000000000 38.887500000000 3.682340016891
2807 2 0.000000000000 36.295000000000 1.841170008446
2808 2 1.594500000000 36.295000000000 4.602925021114
2809 1 4.783500000000 40.831875000000 0.920585004223
2810 1 3.189000000000 40.831875000000 3.682340016891
2811 1 3.189000000000 38.239375000000 1.841170008446
2812 1 4.783500000000 38.239375000000 4.602925021114
2813 2 4.783500000000 38.887500000000 0.920585004223
2814 2 3.189000000000 38.887500000000 3.682340016891
2815 2 3.189000000000 36.295000000000 1.841170008446
2816 2 4.783500000000 36.295000000000 4.602925021114
2817 1 7.972500000000 40.831875000000 0.920585004223
2818 1 6.378000000000 40.831875000000 3.682340016891
2819 1 6.378000000000 38.239375000000 1.841170008446
2820 1 7.972500000000 38.239375000000 4.602925021114
2821 2 7.972500000000 38.887500000000 0.920585004223
2822 2 6.378000000000 38.887500000000 3.682340016891
2823 2 6.378000000000 36.295000000000 1.841170008446
2824 2 7.972500000000 36.295000000000 4.602925021114
2825 1 11.161500000000 40.831875000000 0.920585004223
2826 1 9.567000000000 40.831875000000 3.682340016891
2827 1 9.567000000000 38.239375000000 1.841170008446
2828 1 11.161500000000 38.239375000000 4.602925021114
2829 2 11.161500000000 38.887500000000 0.920585004223
2830 2 9.567000000000 38.887500000000 3.682340016891
2831 2 9.567000000000 36.295000000000 1.841170008446
2832 2 11.161500000000 36.295000000000 4.602925021114
2833 1 14.350500000000 40.831875000000 0.920585004223
2834 1 12.756000000000 40.831875000000 3.682340016891
2835 1 12.756000000000 38.239375000000 1.841170008446
2836 1 14.350500000000 38.239375000000 4.602925021114
2837 2 14.350500000000 38.887500000000 0.920585004223
2838 2 12.756000000000 38.887500000000 3.682340016891
2839 2 12.756000000000 36.295000000000 1.841170008446
2840 2 14.350500000000 36.295000000000 4.602925021114
2841 1 17.539500000000 40.831875000000 0.920585004223
2842 1 15.945000000000 40.831875000000 3.682340016891
2843 1 15.945000000000 38.239375000000 1.841170008446
2844 1 17.539500000000 38.239375000000 4.602925021114
2845 2 17.539500000000 38.887500000000 0.920585004223
2846 2 15.945000000000 38.887500000000 3.682340016891
2847 2 15.945000000000 36.295000000000 1.841170008446
2848 2 17.539500000000 36.295000000000 4.602925021114
2849 1 20.728500000000 40.831875000000 0.920585004223
2850 1 19.134000000000 40.831875000000 3.682340016891
2851 1 19.134000000000 38.239375000000 1.841170008446
2852 1 20.728500000000 38.239375000000 4.602925021114
2853 2 20.728500000000 38.887500000000 0.920585004223
2854 2 19.134000000000 38.887500000000 3.682340016891
2855 2 19.134000000000 36.295000000000 1.841170008446
2856 2 20.728500000000 36.295000000000 4.602925021114
2857 1 23.917500000000 40.831875000000 0.920585004223
2858 1 22.323000000000 40.831875000000 3.682340016891
2859 1 22.323000000000 38.239375000000 1.841170008446
2860 1 23.917500000000 38.239375000000 4.602925021114
2861 2 23.917500000000 38.887500000000 0.920585004223
2862 2 22.323000000000 38.887500000000 3.682340016891
2863 2 22.323000000000 36.295000000000 1.841170008446
2864 2 23.917500000000 36.295000000000 4.602925021114
2865 1 27.106500000000 40.831875000000 0.920585004223
2866 1 25.512000000000 40.831875000000 3.682340016891
2867 1 25.512000000000 38.239375000000 1.841170008446
2868 1 27.106500000000 38.239375000000 4.602925021114
2869 2 27.106500000000 38.887500000000 0.920585004223
2870 2 25.512000000000 38.887500000000 3.682340016891
2871 2 25.512000000000 36.295000000000 1.841170008446
2872 2 27.106500000000 36.295000000000 4.602925021114
2873 1 30.295500000000 40.831875000000 0.920585004223
2874 1 28.701000000000 40.831875000000 3.682340016891
2875 1 28.701000000000 38.239375000000 1.841170008446
2876 1 30.295500000000 38.239375000000 4.602925021114
2877 2 30.295500000000 38.887500000000 0.920585004223
2878 2 28.701000000000 38.887500000000 3.682340016891
2879 2 28.701000000000 36.295000000000 1.841170008446
2880 2 30.295500000000 36.295000000000 4.602925021114
2881 1 1.594500000000 40.831875000000 6.444095029560
2882 1 0.000000000000 40.831875000000 9.205850042229
2883 1 0.000000000000 38.239375000000 7.364680033783
2884 1 1.594500000000 38.239375000000 10.126435046451
2885 2 1.594500000000 38.887500000000 6.444095029560
2886 2 0.000000000000 38.887500000000 9.205850042229
2887 2 0.000000000000 36.295000000000 7.364680033783
2888 2 1.594500000000 36.295000000000 10.126435046451
2889 1 4.783500000000 40.831875000000 6.444095029560
2890 1 3.189000000000 40.831875000000 9.205850042229
2891 1 3.189000000000 38.239375000000 7.364680033783
2892 1 4.783500000000 38.239375000000 10.126435046451
2893 2 4.783500000000 38.887500000000 6.444095029560
2894 2 3.189000000000 38.887500000000 9.205850042229
2895 2 3.189000000000 36.295000000000 7.364680033783
2896 2 4.783500000000 36.295000000000 10.126435046451
2897 1 7.972500000000 40.831875000000 6.444095029560
2898 1 6.378000000000 40.831875000000 9.205850042229
2899 1 6.378000000000 38.239375000000 7.364680033783
2900 1 7.972500000000 38.239375000000 10.126435046451
2901 2 7.972500000000 38.887500000000 6.444095029560
2902 2 6.378000000000 38.887500000000 9.205850042229
2903 2 6.378000000000 36.295000000000 7.364680033783
2904 2 7.972500000000 36.295000000000 10.126435046451
2905 1 11.161500000000 40.831875000000 6.444095029560
2906 1 9.567000000000 40.831875000000 9.205850042229
2907 1 9.567000000000 38.239375000000 7.364680033783
2908 1 11.161500000000 38.239375000000 10.126435046451
2909 2 11.161500000000 38.887500000000 6.444095029560
2910 2 9.567000000000 38.887500000000 9.205850042229
2911 2 9.567000000000 36.295000000000 7.364680033783
2912 2 11.161500000000 36.295000000000 10.126435046451
2913 1 14.350500000000 40.831875000000 6.444095029560
2914 1 12.756000000000 40.831875000000 9.205850042229
2915 1 12.756000000000 38.239375000000 7.364680033783
2916 1 14.350500000000 38.239375000000 10.126435046451
2917 2 14.350500000000 38.887500000000 6.444095029560
2918 2 12.756000000000 38.887500000000 9.205850042229
2919 2 12.756000000000 36.295000000000 7.364680033783
2920 2 14.350500000000 36.295000000000 10.126435046451
2921 1 17.539500000000 40.831875000000 6.444095029560
2922 1 15.945000000000 40.831875000000 9.205850042229
2923 1 15.945000000000 38.239375000000 7.364680033783
2924 1 17.539500000000 38.239375000000 10.126435046451
2925 2 17.539500000000 38.887500000000 6.444095029560
2926 2 15.945000000000 38.887500000000 9.205850042229
2927 2 15.945000000000 36.295000000000 7.364680033783
2928 2 17.539500000000 36.295000000000 10.126435046451
2929 1 20.728500000000 40.831875000000 6.444095029560
2930 1 19.134000000000 40.831875000000 9.205850042229
2931 1 19.134000000000 38.239375000000 7.364680033783
2932 1 20.728500000000 38.239375000000 10.126435046451
2933 2 20.728500000000 38.887500000000 6.444095029560
2934 2 19.134000000000 38.887500000000 9.205850042229
2935 2 19.134000000000 36.295000000000 7.364680033783
2936 2 20.728500000000 36.295000000000 10.126435046451
2937 1 23.917500000000 40.831875000000 6.444095029560
2938 1 22.323000000000 40.831875000000 9.205850042229
2939 1 22.323000000000 38.239375000000 7.364680033783
2940 1 23.917500000000 38.239375000000 10.126435046451
2941 2 23.917500000000 38.887500000000 6.444095029560
2942 2 22.323000000000 38.887500000000 9.205850042229
2943 2 22.323000000000 36.295000000000 7.364680033783
2944 2 23.917500000000 36.295000000000 10.126435046451
2945 1 27.106500000000 40.831875000000 6.444095029560
2946 1 25.512000000000 40.831875000000 9.205850042229
2947 1 25.512000000000 38.239375000000 7.364680033783
2948 1 27.106500000000 38.239375000000 10.126435046451
2949 2 27.106500000000 38.887500000000 6.444095029560
2950 2 25.512000000000 38.887500000000 9.205850042229
2951 2 25.512000000000 36.295000000000 7.364680033783
2952 2 27.106500000000 36.295000000000 10.126435046451
2953 1 30.295500000000 40.831875000000 6.444095029560
2954 1 28.701000000000 40.831875000000 9.205850042229
2955 1 28.701000000000 38.239375000000 7.364680033783
2956 1 30.295500000000 38.239375000000 10.126435046451
2957 2 30.295500000000 38.887500000000 6.444095029560
2958 2 28.701000000000 38.887500000000 9.205850042229
2959 2 28.701000000000 36.295000000000 7.364680033783
2960 2 30.295500000000 36.295000000000 10.126435046451
2961 1 1.594500000000 40.831875000000 11.967605054897
2962 1 0.000000000000 40.831875000000 14.729360067566
2963 1 0.000000000000 38.239375000000 12.888190059120
2964 1 1.594500000000 38.239375000000 15.649945071789
2965 2 1.594500000000 38.887500000000 11.967605054897
2966 2 0.000000000000 38.887500000000 14.729360067566
2967 2 0.000000000000 36.295000000000 12.888190059120
2968 2 1.594500000000 36.295000000000 15.649945071789
2969 1 4.783500000000 40.831875000000 11.967605054897
2970 1 3.189000000000 40.831875000000 14.729360067566
2971 1 3.189000000000 38.239375000000 12.888190059120
2972 1 4.783500000000 38.239375000000 15.649945071789
2973 2 4.783500000000 38.887500000000 11.967605054897
2974 2 3.189000000000 38.887500000000 14.729360067566
2975 2 3.189000000000 36.295000000000 12.888190059120
2976 2 4.783500000000 36.295000000000 15.649945071789
2977 1 7.972500000000 40.831875000000 11.967605054897
2978 1 6.378000000000 40.831875000000 14.729360067566
2979 1 6.378000000000 38.239375000000 12.888190059120
2980 1 7.972500000000 38.239375000000 15.649945071789
2981 2 7.972500000000 38.887500000000 11.967605054897
2982 2 6.378000000000 38.887500000000 14.729360067566
2983 2 6.378000000000 36.295000000000 12.888190059120
2984 2 7.972500000000 36.295000000000 15.649945071789
2985 1 11.161500000000 40.831875000000 11.967605054897
2986 1 9.567000000000 40.831875000000 14.729360067566
2987 1 9.567000000000 38.239375000000 12.888190059120
2988 1 11.161500000000 38.239375000000 15.649945071789
2989 2 11.161500000000 38.887500000000 11.967605054897
2990 2 9.567000000000 38.887500000000 14.729360067566
2991 2 9.567000000000 36.295000000000 12.888190059120
2992 2 11.161500000000 36.295000000000 15.649945071789
2993 1 14.350500000000 40.831875000000 11.967605054897
2994 1 12.756000000000 40.831875000000 14.729360067566
2995 1 12.756000000000 38.239375000000 12.888190059120
2996 1 14.350500000000 38.239375000000 15.649945071789
2997 2 14.350500000000 38.887500000000 11.967605054897
2998 2 12.756000000000 38.887500000000 14.729360067566
2999 2 12.756000000000 36.295000000000 12.888190059120
3000 2 14.350500000000 36.295000000000 15.649945071789
3001 1 17.539500000000 40.831875000000 11.967605054897
3002 1 15.945000000000 40.831875000000 14.729360067566
3003 1 15.945000000000 38.239375000000 12.888190059120
3004 1 17.539500000000 38.239375000000 15.649945071789
3005 2 17.539500000000 38.887500000000 11.967605054897
3006 2 15.945000000000 38.887500000000 14.729360067566
3007 2 15.945000000000 36.295000000000 12.888190059120
3008 2 17.539500000000 36.295000000000 15.649945071789
3009 1 20.728500000000 40.831875000000 11.967605054897
3010 1 19.134000000000 40.831875000000 14.729360067566
3011 1 19.134000000000 38.239375000000 12.888190059120
3012 1 20.728500000000 38.239375000000 15.649945071789
3013 2 20.728500000000 38.887500000000 11.967605054897
3014 2 19.134000000000 38.887500000000 14.729360067566
3015 2 19.134000000000 36.295000000000 12.888190059120
3016 2 20.728500000000 36.295000000000 15.649945071789
3017 1 23.917500000000 40.831875000000 11.967605054897
3018 1 22.323000000000 40.831875000000 14.729360067566
3019 1 22.323000000000 38.239375000000 12.888190059120
3020 1 23.917500000000 38.239375000000 15.649945071789
3021 2 23.917500000000 38.887500000000 11.967605054897
3022 2 22.323000000000 38.887500000000 14.729360067566
3023 2 22.323000000000 36.295000000000 12.888190059120
3024 2 23.917500000000 36.295000000000 15.649945071789
3025 1 27.106500000000 40.831875000000 11.967605054897
3026 1 25.512000000000 40.831875000000 14.729360067566
3027 1 25.512000000000 38.239375000000 12.888190059120
3028 1 27.106500000000 38.239375000000 15.649945071789
3029 2 27.106500000000 38.887500000000 11.967605054897
3030 2 25.512000000000 38.887500000000 14.729360067566
3031 2 25.512000000000 36.295000000000 12.888190059120
3032 2 27.106500000000 36.295000000000 15.649945071789
3033 1 30.295500000000 40.831875000000 11.967605054897
3034 1 28.701000000000 40.831875000000 14.729360067566
3035 1 28.701000000000 38.239375000000 12.888190059120
3036 1 30.295500000000 38.239375000000 15.649945071789
3037 2 30.295500000000 38.887500000000 11.967605054897
3038 2 28.701000000000 38.887500000000 14.729360067566
3039 2 28.701000000000 36.295000000000 12.888190059120
3040 2 30.295500000000 36.295000000000 15.649945071789
3041 1 1.594500000000 40.831875000000 17.491115080234
3042 1 0.000000000000 40.831875000000 20.252870092903
3043 1 0.000000000000 38.239375000000 18.411700084457
3044 1 1.594500000000 38.239375000000 21.173455097126
3045 2 1.594500000000 38.887500000000 17.491115080234
3046 2 0.000000000000 38.887500000000 20.252870092903
3047 2 0.000000000000 36.295000000000 18.411700084457
3048 2 1.594500000000 36.295000000000 21.173455097126
3049 1 4.783500000000 40.831875000000 17.491115080234
3050 1 3.189000000000 40.831875000000 20.252870092903
3051 1 3.189000000000 38.239375000000 18.411700084457
3052 1 4.783500000000 38.239375000000 21.173455097126
3053 2 4.783500000000 38.887500000000 17.491115080234
3054 2 3.189000000000 38.887500000000 20.252870092903
3055 2 3.189000000000 36.295000000000 18.411700084457
3056 2 4.783500000000 36.295000000000 21.173455097126
3057 1 7.972500000000 40.831875000000 17.491115080234
3058 1 6.378000000000 40.831875000000 20.252870092903
3059 1 6.378000000000 38.239375000000 18.411700084457
3060 1 7.972500000000 38.239375000000 21.173455097126
3061 2 7.972500000000 38.887500000000 17.491115080234
3062 2 6.378000000000 38.887500000000 20.252870092903
3063 2 6.378000000000 36.295000000000 18.411700084457
3064 2 7.972500000000 36.295000000000 21.173455097126
3065 1 11.161500000000 40.831875000000 17.491115080234
3066 1 9.567000000000 40.831875000000 20.252870092903
3067 1 9.567000000000 38.239375000000 18.411700084457
3068 1 11.161500000000 38.239375000000 21.173455097126
3069 2 11.161500000000 38.887500000000 17.491115080234
3070 2 9.567000000000 38.887500000000 20.252870092903
3071 2 9.567000000000 36.295000000000 18.411700084457
3072 2 11.161500000000 36.295000000000 21.173455097126
3073 1 14.350500000000 40.831875000000 17.491115080234
3074 1 12.756000000000 40.831875000000 20.252870092903
3075 1 12.756000000000 38.239375000000 18.411700084457
3076 1 14.350500000000 38.239375000000 21.173455097126
3077 2 14.350500000000 38.887500000000 17.491115080234
3078 2 12.756000000000 38.887500000000 20.252870092903
3079 2 12.756000000000 36.295000000000 18.411700084457
3080 2 14.350500000000 36.295000000000 21.173455097126
3081 1 17.539500000000 40.831875000000 17.491115080234
3082 1 15.945000000000 40.831875000000 20.252870092903
3083 1 15.945000000000 38.239375000000 18.411700084457
3084 1 17.539500000000 38.239375000000 21.173455097126
3085 2 17.539500000000 38.887500000000 17.491115080234
3086 2 15.945000000000 38.887500000000 20.252870092903
3087 2 15.945000000000 36.295000000000 18.411700084457
3088 2 17.539500000000 36.295000000000 21.173455097126
3089 1 20.728500000000 40.831875000000 17.491115080234
3090 1 19.134000000000 40.831875000000 20.252870092903
3091 1 19.134000000000 38.239375000000 18.411700084457
3092 1 20.728500000000 38.239375000000 21.173455097126
3093 2 20.728500000000 38.887500000000 17.491115080234
3094 2 19.134000000000 38.887500000000 20.252870092903
3095 2 19.134000000000 36.295000000000 18.411700084457
3096 2 20.728500000000 36.295000000000 21.173455097126
3097 1 23.917500000000 40.831875000000 17.491115080234
3098 1 22.323000000000 40.831875000000 20.252870092903
3099 1 22.323000000000 38.239375000000 18.411700084457
3100 1 23.917500000000 38.239375000000 21.173455097126
3101 2 23.917500000000 38.887500000000 17.491115080234
3102 2 22.323000000000 38.887500000000 20.252870092903
3103 2 22.323000000000 36.295000000000 18.411700084457
3104 2 23.917500000000 36.295000000000 21.173455097126
3105 1 27.106500000000 40.831875000000 17.491115080234
3106 1 25.512000000000 40.831875000000 20.252870092903
3107 1 25.512000000000 38.239375000000 18.411700084457
3108 1 27.106500000000 38.239375000000 21.173455097126
3109 2 27.106500000000 38.887500000000 17.491115080234
3110 2 25.512000000000 38.887500000000 20.252870092903
3111 2 25.512000000000 36.295000000000 18.411700084457
3112 2 27.106500000000 36.295000000000 21.173455097126
3113 1 30.295500000000 40.831875000000 17.491115080234
3114 1 28.701000000000 40.831875000000 20.252870092903
3115 1 28.701000000000 38.239375000000 18.411700084457
3116 1 30.295500000000 38.239375000000 21.173455097126
3117 2 30.295500000000 38.887500000000 17.491115080234
3118 2 28.701000000000 38.887500000000 20.252870092903
3119 2 28.701000000000 36.295000000000 18.411700084457
3120 2 30.295500000000 36.295000000000 21.173455097126
3121 1 1.594500000000 40.831875000000 23.014625105571
3122 1 0.000000000000 40.831875000000 25.776380118240
3123 1 0.000000000000 38.239375000000 23.935210109794
3124 1 1.594500000000 38.239375000000 26.696965122463
3125 2 1.594500000000 38.887500000000 23.014625105571
3126 2 0.000000000000 38.887500000000 25.776380118240
3127 2 0.000000000000 36.295000000000 23.935210109794
3128 2 1.594500000000 36.295000000000 26.696965122463
3129 1 4.783500000000 40.831875000000 23.014625105571
3130 1 3.189000000000 40.831875000000 25.776380118240
3131 1 3.189000000000 38.239375000000 23.935210109794
3132 1 4.783500000000 38.239375000000 26.696965122463
3133 2 4.783500000000 38.887500000000 23.014625105571
3134 2 3.189000000000 38.887500000000 25.776380118240
3135 2 3.189000000000 36.295000000000 23.935210109794
3136 2 4.783500000000 36.295000000000 26.696965122463
3137 1 7.972500000000 40.831875000000 23.014625105571
3138 1 6.378000000000 40.831875000000 25.776380118240
3139 1 6.378000000000 38.239375000000 23.935210109794
3140 1 7.972500000000 38.239375000000 26.696965122463
3141 2 7.972500000000 38.887500000000 23.014625105571
3142 2 6.378000000000 38.887500000000 25.776380118240
3143 2 6.378000000000 36.295000000000 23.935210109794
3144 2 7.972500000000 36.295000000000 26.696965122463
3145 1 11.161500000000 40.831875000000 23.014625105571
3146 1 9.567000000000 40.831875000000 25.776380118240
3147 1 9.567000000000 38.239375000000 23.935210109794
3148 1 11.161500000000 38.239375000000 26.696965122463
3149 2 11.161500000000 38.887500000000 23.014625105571
3150 2 9.567000000000 38.887500000000 25.776380118240
3151 2 9.567000000000 36.295000000000 23.935210109794
3152 2 11.161500000000 36.295000000000 26.696965122463
3153 1 14.350500000000 40.831875000000 23.014625105571
3154 1 12.756000000000 40.831875000000 25.776380118240
3155 1 12.756000000000 38.239375000000 23.935210109794
3156 1 14.350500000000 38.239375000000 26.696965122463
3157 2 14.350500000000 38.887500000000 23.014625105571
3158 2 12.756000000000 38.887500000000 25.776380118240
3159 2 12.756000000000 36.295000000000 23.935210109794
3160 2 14.350500000000 36.295000000000 26.696965122463
3161 1 17.539500000000 40.831875000000 23.014625105571
3162 1 15.945000000000 40.831875000000 25.776380118240
3163 1 15.945000000000 38.239375000000 23.935210109794
3164 1 17.539500000000 38.239375000000 26.696965122463
3165 2 17.539500000000 38.887500000000 23.014625105571
3166 2 15.945000000000 38.887500000000 25.776380118240
3167 2 15.945000000000 36.295000000000 23.935210109794
3168 2 17.539500000000 36.295000000000 26.696965122463
3169 1 20.728500000000 40.831875000000 23.014625105571
3170 1 19.134000000000 40.831875000000 25.776380118240
3171 1 19.134000000000 38.239375000000 23.935210109794
3172 1 20.728500000000 38.239375000000 26.696965122463
3173 2 20.728500000000 38.887500000000 23.014625105571
3174 2 19.134000000000 38.887500000000 25.776380118240
3175 2 19.134000000000 36.295000000000 23.935210109794
3176 2 20.728500000000 36.295000000000 26.696965122463
3177 1 23.917500000000 40.831875000000 23.014625105571
3178 1 22.323000000000 40.831875000000 25.776380118240
3179 1 22.323000000000 38.239375000000 23.935210109794
3180 1 23.917500000000 38.239375000000 26.696965122463
3181 2 23.917500000000 38.887500000000 23.014625105571
3182 2 22.323000000000 38.887500000000 25.776380118240
3183 2 22.323000000000 36.295000000000 23.935210109794
3184 2 23.917500000000 36.295000000000 26.696965122463
3185 1 27.106500000000 40.831875000000 23.014625105571
3186 1 25.512000000000 40.831875000000 25.776380118240
3187 1 25.512000000000 38.239375000000 23.935210109794
3188 1 27.106500000000 38.239375000000 26.696965122463
3189 2 27.106500000000 38.887500000000 23.014625105571
3190 2 25.512000000000 38.887500000000 25.776380118240
3191 2 25.512000000000 36.295000000000 23.935210109794
3192 2 27.106500000000 36.295000000000 26.696965122463
3193 1 30.295500000000 40.831875000000 23.014625105571
3194 1 28.701000000000 40.831875000000 25.776380118240
3195 1 28.701000000000 38.239375000000 23.935210109794
3196 1 30.295500000000 38.239375000000 26.696965122463
3197 2 30.295500000000 38.887500000000 23.014625105571
3198 2 28.701000000000 38.887500000000 25.776380118240
3199 2 28.701000000000 36.295000000000 23.935210109794
3200 2 30.295500000000 36.295000000000 26.696965122463
3201 1 1.594500000000 46.016875000000 0.920585004223
3202 1 0.000000000000 46.016875000000 3.682340016891
3203 1 0.000000000000 43.424375000000 1.841170008446
3204 1 1.594500000000 43.424375000000 4.602925021114
3205 2 1.594500000000 44.072500000000 0.920585004223
3206 2 0.000000000000 44.072500000000 3.682340016891
3207 2 0.000000000000 41.480000000000 1.841170008446
3208 2 1.594500000000 41.480000000000 4.602925021114
3209 1 4.783500000000 46.016875000000 0.920585004223
3210 1 3.189000000000 46.016875000000 3.682340016891
3211 1 3.189000000000 43.424375000000 1.841170008446
3212 1 4.783500000000 43.424375000000 4.602925021114
3213 2 4.783500000000 44.072500000000 0.920585004223
3214 2 3.189000000000 44.072500000000 3.682340016891
3215 2 3.189000000000 41.480000000000 1.841170008446
3216 2 4.783500000000 41.480000000000 4.602925021114
3217 1 7.972500000000 46.016875000000 0.920585004223
3218 1 6.378000000000 46.016875000000 3.682340016891
3219 1 6.378000000000 43.424375000000 1.841170008446
3220 1 7.972500000000 43.424375000000 4.602925021114
3221 2 7.972500000000 44.072500000000 0.920585004223
3222 2 6.378000000000 44.072500000000 3.682340016891
3223 2 6.378000000000 41.480000000000 1.841170008446
3224 2 7.972500000000 41.480000000000 4.602925021114
3225 1 11.161500000000 46.016875000000 0.920585004223
3226 1 9.567000000000 46.016875000000 3.682340016891
3227 1 9.567000000000 43.424375000000 1.841170008446
3228 1 11.161500000000 43.424375000000 4.602925021114
3229 2 11.161500000000 44.072500000000 0.920585004223
3230 2 9.567000000000 44.072500000000 3.682340016891
3231 2 9.567000000000 41.480000000000 1.841170008446
3232 2 11.161500000000 41.480000000000 4.602925021114
3233 1 14.350500000000 46.016875000000 0.920585004223
3234 1 12.756000000000 46.016875000000 3.682340016891
3235 1 12.756000000000 43.424375000000 1.841170008446
3236 1 14.350500000000 43.424375000000 4.602925021114
3237 2 14.350500000000 44.072500000000 0.920585004223
3238 2 12.756000000000 44.072500000000 3.682340016891
3239 2 12.756000000000 41.480000000000 1.841170008446
3240 2 14.350500000000 41.480000000000 4.602925021114
3241 1 17.539500000000 46.016875000000 0.920585004223
3242 1 15.945000000000 46.016875000000 3.682340016891
3243 1 15.945000000000 43.424375000000 1.841170008446
3244 1 17.539500000000 43.424375000000 4.602925021114
3245 2 17.539500000000 44.072500000000 0.920585004223
3246 2 15.945000000000 44.072500000000 3.682340016891
3247 2 15.945000000000 41.480000000000 1.841170008446
3248 2 17.539500000000 41.480000000000 4.602925021114
3249 1 20.728500000000 46.016875000000 0.920585004223
3250 1 19.134000000000 46.016875000000 3.682340016891
3251 1 19.134000000000 43.424375000000 1.841170008446
3252 1 20.728500000000 43.424375000000 4.602925021114
3253 2 20.728500000000 44.072500000000 0.920585004223
3254 2 19.134000000000 44.072500000000 3.682340016891
3255 2 19.134000000000 41.480000000000 1.841170008446
3256 2 20.728500000000 41.480000000000 4.602925021114
3257 1 23.917500000000 46.016875000000 0.920585004223
3258 1 22.323000000000 46.016875000000 3.682340016891
3259 1 22.323000000000 43.424375000000 1.841170008446
3260 1 23.917500000000 43.424375000000 4.602925021114
3261 2 23.917500000000 44.072500000000 0.920585004223
3262 2 22.323000000000 44.072500000000 3.682340016891
3263 2 22.323000000000 41.480000000000 1.841170008446
3264 2 23.917500000000 41.480000000000 4.602925021114
3265 1 27.106500000000 46.016875000000 0.920585004223
3266 1 25.512000000000 46.016875000000 3.682340016891
3267 1 25.512000000000 43.424375000000 1.841170008446
3268 1 27.106500000000 43.424375000000 4.602925021114
3269 2 27.106500000000 44.072500000000 0.920585004223
3270 2 25.512000000000 44.072500000000 3.682340016891
3271 2 25.512000000000 41.480000000000 1.841170008446
3272 2 27.106500000000 41.480000000000 4.602925021114
3273 1 30.295500000000 46.016875000000 0.920585004223
3274 1 28.701000000000 46.016875000000 3.682340016891
3275 1 28.701000000000 43.424375000000 1.841170008446
3276 1 30.295500000000 43.424375000000 4.602925021114
3277 2 30.295500000000 44.072500000000 0.920585004223
3278 2 28.701000000000 44.072500000000 3.682340016891
3279 2 28.701000000000 41.480000000000 1.841170008446
3280 2 30.295500000000 41.480000000000 4.602925021114
3281 1 1.594500000000 46.016875000000 6.444095029560
3282 1 0.000000000000 46.016875000000 9.205850042229
3283 1 0.000000000000 43.424375000000 7.364680033783
3284 1 1.594500000000 43.424375000000 10.126435046451
3285 2 1.594500000000 44.072500000000 6.444095029560
3286 2 0.000000000000 44.072500000000 9.205850042229
3287 2 0.000000000000 41.480000000000 7.364680033783
3288 2 1.594500000000 41.480000000000 10.126435046451
3289 1 4.783500000000 46.016875000000 6.444095029560
3290 1 3.189000000000 46.016875000000 9.205850042229
3291 1 3.189000000000 43.424375000000 7.364680033783
3292 1 4.783500000000 43.424375000000 10.126435046451
3293 2 4.783500000000 44.072500000000 6.444095029560
3294 2 3.189000000000 44.072500000000 9.205850042229
3295 2 3.189000000000 41.480000000000 7.364680033783
3296 2 4.783500000000 41.480000000000 10.126435046451
3297 1 7.972500000000 46.016875000000 6.444095029560
3298 1 6.378000000000 46.016875000000 9.205850042229
3299 1 6.378000000000 43.424375000000 7.364680033783
3300 1 7.972500000000 43.424375000000 10.126435046451
3301 2 7.972500000000 44.072500000000 6.444095029560
3302 2 6.378000000000 44.072500000000 9.205850042229
3303 2 6.378000000000 41.480000000000 7.364680033783
3304 2 7.972500000000 41.480000000000 10.126435046451
3305 1 11.161500000000 46.016875000000 6.444095029560
3306 1 9.567000000000 46.016875000000 9.205850042229
3307 1 9.567000000000 43.424375000000 7.364680033783
3308 1 11.161500000000 43.424375000000 10.126435046451
3309 2 11.161500000000 44.072500000000 6.444095029560
3310 2 9.567000000000 44.072500000000 9.205850042229
3311 2 9.567000000000 41.480000000000 7.364680033783
3312 2 11.161500000000 41.480000000000 10.126435046451
3313 1 14.350500000000 46.016875000000 6.444095029560
3314 1 12.756000000000 46.016875000000 9.205850042229
3315 1 12.756000000000 43.424375000000 7.364680033783
3316 1 14.350500000000 43.424375000000 10.126435046451
3317 2 14.350500000000 44.072500000000 6.444095029560
3318 2 12.756000000000 44.072500000000 9.205850042229
3319 2 12.756000000000 41.480000000000 7.364680033783
3320 2 14.350500000000 41.480000000000 10.126435046451
3321 1 17.539500000000 46.016875000000 6.444095029560
3322 1 15.945000000000 46.016875000000 9.205850042229
3323 1 15.945000000000 43.424375000000 7.364680033783
3324 1 17.539500000000 43.424375000000 10.126435046451
3325 2 17.539500000000 44.072500000000 6.444095029560
3326 2 15.945000000000 44.072500000000 9.205850042229
3327 2 15.945000000000 41.480000000000 7.364680033783
3328 2 17.539500000000 41.480000000000 10.126435046451
3329 1 20.728500000000 46.016875000000 6.444095029560
3330 1 19.134000000000 46.016875000000 9.205850042229
3331 1 19.134000000000 43.424375000000 7.364680033783
3332 1 20.728500000000 43.424375000000 10.126435046451
3333 2 20.728500000000 44.072500000000 6.444095029560
3334 2 19.134000000000 44.072500000000 9.205850042229
3335 2 19.134000000000 41.480000000000 7.364680033783
3336 2 20.728500000000 41.480000000000 10.126435046451
3337 1 23.917500000000 46.016875000000 6.444095029560
3338 1 22.323000000000 46.016875000000 9.205850042229
3339 1 22.323000000000 43.424375000000 7.364680033783
3340 1 23.917500000000 43.424375000000 10.126435046451
3341 2 23.917500000000 44.072500000000 6.444095029560
3342 2 22.323000000000 44.072500000000 9.205850042229
3343 2 22.323000000000 41.480000000000 7.364680033783
3344 2 23.917500000000 41.480000000000 10.126435046451
3345 1 27.106500000000 46.016875000000 6.444095029560
3346 1 25.512000000000 46.016875000000 9.205850042229
3347 1 25.512000000000 43.424375000000 7.364680033783
3348 1 27.106500000000 43.424375000000 10.126435046451
3349 2 27.106500000000 44.072500000000 6.444095029560
3350 2 25.512000000000 44.072500000000 9.205850042229
3351 2 25.512000000000 41.480000000000 7.364680033783
3352 2 27.106500000000 41.480000000000 10.126435046451
3353 1 30.295500000000 46.016875000000 6.444095029560
3354 1 28.701000000000 46.016875000000 9.205850042229
3355 1 28.701000000000 43.424375000000 7.364680033783
3356 1 30.295500000000 43.424375000000 10.126435046451
3357 2 30.295500000000 44.072500000000 6.444095029560
3358 2 28.701000000000 44.072500000000 9.205850042229
3359 2 28.701000000000 41.480000000000 7.364680033783
3360 2 30.295500000000 41.480000000000 10.126435046451
3361 1 1.594500000000 46.016875000000 11.967605054897
3362 1 0.000000000000 46.016875000000 14.729360067566
3363 1 0.000000000000 43.424375000000 12.888190059120
3364 1 1.594500000000 43.424375000000 15.649945071789
3365 2 1.594500000000 44.072500000000 11.967605054897
3366 2 0.000000000000 44.072500000000 14.729360067566
3367 2 0.000000000000 41.480000000000 12.888190059120
3368 2 1.594500000000 41.480000000000 15.649945071789
3369 1 4.783500000000 46.016875000000 11.967605054897
3370 1 3.189000000000 46.016875000000 14.729360067566
3371 1 3.189000000000 43.424375000000 12.888190059120
3372 1 4.783500000000 43.424375000000 15.649945071789
3373 2 4.783500000000 44.072500000000 11.967605054897
3374 2 3.189000000000 44.072500000000 14.729360067566
3375 2 3.189000000000 41.480000000000 12.888190059120
3376 2 4.783500000000 41.480000000000 15.649945071789
3377 1 7.972500000000 46.016875000000 11.967605054897
3378 1 6.378000000000 46.016875000000 14.729360067566
3379 1 6.378000000000 43.424375000000 12.888190059120
3380 1 7.972500000000 43.424375000000 15.649945071789
3381 2 7.972500000000 44.072500000000 11.967605054897
3382 2 6.378000000000 44.072500000000 14.729360067566
3383 2 6.378000000000 41.480000000000 12.888190059120
3384 2 7.972500000000 41.480000000000 15.649945071789
3385 1 11.161500000000 46.016875000000 11.967605054897
3386 1 9.567000000000 46.016875000000 14.729360067566
3387 1 9.567000000000 43.424375000000 12.888190059120
3388 1 11.161500000000 43.424375000000 15.649945071789
3389 2 11.161500000000 44.072500000000 11.967605054897
3390 2 9.567000000000 44.072500000000 14.729360067566
3391 2 9.567000000000 41.480000000000 12.888190059120
3392 2 11.161500000000 41.480000000000 15.649945071789
3393 1 14.350500000000 46.016875000000 11.967605054897
3394 1 12.756000000000 46.016875000000 14.729360067566
3395 1 12.756000000000 43.424375000000 12.888190059120
3396 1 14.350500000000 43.424375000000 15.649945071789
3397 2 14.350500000000 44.072500000000 11.967605054897
3398 2 12.756000000000 44.072500000000 14.729360067566
3399 2 12.756000000000 41.480000000000 12.888190059120
3400 2 14.350500000000 41.480000000000 15.649945071789
3401 1 17.539500000000 46.016875000000 11.967605054897
3402 1 15.945000000000 46.016875000000 14.729360067566
3403 1 15.945000000000 43.424375000000 12.888190059120
3404 1 17.539500000000 43.424375000000 15.649945071789
3405 2 17.539500000000 44.072500000000 11.967605054897
3406 2 15.945000000000 44.072500000000 14.729360067566
3407 2 15.945000000000 41.480000000000 12.888190059120
3408 2 17.539500000000 41.480000000000 15.649945071789
3409 1 20.728500000000 46.016875000000 11.967605054897
3410 1 19.134000000000 46.016875000000 14.729360067566
3411 1 19.134000000000 43.424375000000 12.888190059120
3412 1 20.728500000000 43.424375000000 15.649945071789
3413 2 20.728500000000 44.072500000000 11.967605054897
3414 2 19.134000000000 44.072500000000 14.729360067566
3415 2 19.134000000000 41.480000000000 12.888190059120
3416 2 20.728500000000 41.480000000000 15.649945071789
3417 1 23.917500000000 46.016875000000 11.967605054897
3418 1 22.323000000000 46.016875000000 14.729360067566
3419 1 22.323000000000 43.424375000000 12.888190059120
3420 1 23.917500000000 43.424375000000 15.649945071789
3421 2 23.917500000000 44.072500000000 11.967605054897
3422 2 22.323000000000 44.072500000000 14.729360067566
3423 2 22.323000000000 41.480000000000 12.888190059120
3424 2 23.917500000000 41.480000000000 15.649945071789
3425 1 27.106500000000 46.016875000000 11.967605054897
3426 1 25.512000000000 46.016875000000 14.729360067566
3427 1 25.512000000000 43.424375000000 12.888190059120
3428 1 27.106500000000 43.424375000000 15.649945071789
3429 2 27.106500000000 44.072500000000 11.967605054897
3430 2 25.512000000000 44.072500000000 14.729360067566
3431 2 25.512000000000 41.480000000000 12.888190059120
3432 2 27.106500000000 41.480000000000 15.649945071789
3433 1 30.295500000000 46.016875000000 11.967605054897
3434 1 28.701000000000 46.016875000000 14.729360067566
3435 1 28.701000000000 43.424375000000 12.888190059120
3436 1 30.295500000000 43.424375000000 15.649945071789
3437 2 30.295500000000 44.072500000000 11.967605054897
3438 2 28.701000000000 44.072500000000 14.729360067566
3439 2 28.701000000000 41.480000000000 12.888190059120
3440 2 30.295500000000 41.480000000000 15.649945071789
3441 1 1.594500000000 46.016875000000 17.491115080234
3442 1 0.000000000000 46.016875000000 20.252870092903
3443 1 0.000000000000 43.424375000000 18.411700084457
3444 1 1.594500000000 43.424375000000 21.173455097126
3445 2 1.594500000000 44.072500000000 17.491115080234
3446 2 0.000000000000 44.072500000000 20.252870092903
3447 2 0.000000000000 41.480000000000 18.411700084457
3448 2 1.594500000000 41.480000000000 21.173455097126
3449 1 4.783500000000 46.016875000000 17.491115080234
3450 1 3.189000000000 46.016875000000 20.252870092903
3451 1 3.189000000000 43.424375000000 18.411700084457
3452 1 4.783500000000 43.424375000000 21.173455097126
3453 2 4.783500000000 44.072500000000 17.491115080234
3454 2 3.189000000000 44.072500000000 20.252870092903
3455 2 3.189000000000 41.480000000000 18.411700084457
3456 2 4.783500000000 41.480000000000 21.173455097126
3457 1 7.972500000000 46.016875000000 17.491115080234
3458 1 6.378000000000 46.016875000000 20.252870092903
3459 1 6.378000000000 43.424375000000 18.411700084457
3460 1 7.972500000000 43.424375000000 21.173455097126
3461 2 7.972500000000 44.072500000000 17.491115080234
3462 2 6.378000000000 44.072500000000 20.252870092903
3463 2 6.378000000000 41.480000000000 18.411700084457
3464 2 7.972500000000 41.480000000000 21.173455097126
3465 1 11.161500000000 46.016875000000 17.491115080234
3466 1 9.567000000000 46.016875000000 20.252870092903
3467 1 9.567000000000 43.424375000000 18.411700084457
3468 1 11.161500000000 43.424375000000 21.173455097126
3469 2 11.161500000000 44.072500000000 17.491115080234
3470 2 9.567000000000 44.072500000000 20.252870092903
3471 2 9.567000000000 41.480000000000 18.411700084457
3472 2 11.161500000000 41.480000000000 21.173455097126
3473 1 14.350500000000 46.016875000000 17.491115080234
3474 1 12.756000000000 46.016875000000 20.252870092903
3475 1 12.756000000000 43.424375000000 18.411700084457
3476 1 14.350500000000 43.424375000000 21.173455097126
3477 2 14.350500000000 44.072500000000 17.491115080234
3478 2 12.756000000000 44.072500000000 20.252870092903
3479 2 12.756000000000 41.480000000000 18.411700084457
3480 2 14.350500000000 41.480000000000 21.173455097126
3481 1 17.539500000000 46.016875000000 17.491115080234
3482 1 15.945000000000 46.016875000000 20.252870092903
3483 1 15.945000000000 43.424375000000 18.411700084457
3484 1 17.539500000000 43.424375000000 21.173455097126
3485 2 17.539500000000 44.072500000000 17.491115080234
3486 2 15.945000000000 44.072500000000 20.252870092903
3487 2 15.945000000000 41.480000000000 18.411700084457
3488 2 17.539500000000 41.480000000000 21.173455097126
3489 1 20.728500000000 46.016875000000 17.491115080234
3490 1 19.134000000000 46.016875000000 20.252870092903
3491 1 19.134000000000 43.424375000000 18.411700084457
3492 1 20.728500000000 43.424375000000 21.173455097126
3493 2 20.728500000000 44.072500000000 17.491115080234
3494 2 19.134000000000 44.072500000000 20.252870092903
3495 2 19.134000000000 41.480000000000 18.411700084457
3496 2 20.728500000000 41.480000000000 21.173455097126
3497 1 23.917500000000 46.016875000000 17.491115080234
3498 1 22.323000000000 46.016875000000 20.252870092903
3499 1 22.323000000000 43.424375000000 18.411700084457
3500 1 23.917500000000 43.424375000000 21.173455097126
3501 2 23.917500000000 44.072500000000 17.491115080234
3502 2 22.323000000000 44.072500000000 20.252870092903
3503 2 22.323000000000 41.480000000000 18.411700084457
3504 2 23.917500000000 41.480000000000 21.173455097126
3505 1 27.106500000000 46.016875000000 17.491115080234
3506 1 25.512000000000 46.016875000000 20.252870092903
3507 1 25.512000000000 43.424375000000 18.411700084457
3508 1 27.106500000000 43.424375000000 21.173455097126
3509 2 27.106500000000 44.072500000000 17.491115080234
3510 2 25.512000000000 44.072500000000 20.252870092903
3511 2 25.512000000000 41.480000000000 18.411700084457
3512 2 27.106500000000 41.480000000000 21.173455097126
3513 1 30.295500000000 46.016875000000 17.491115080234
3514 1 28.701000000000 46.016875000000 20.252870092903
3515 1 28.701000000000 43.424375000000 18.411700084457
3516 1 30.295500000000 43.424375000000 21.173455097126
3517 2 30.295500000000 44.072500000000 17.491115080234
3518 2 28.701000000000 44.072500000000 20.252870092903
3519 2 28.701000000000 41.480000000000 18.411700084457
3520 2 30.295500000000 41.480000000000 21.173455097126
3521 1 1.594500000000 46.016875000000 23.014625105571
3522 1 0.000000000000 46.016875000000 25.776380118240
3523 1 0.000000000000 43.424375000000 23.935210109794
3524 1 1.594500000000 43.424375000000 26.696965122463
3525 2 1.594500000000 44.072500000000 23.014625105571
3526 2 0.000000000000 44.072500000000 25.776380118240
3527 2 0.000000000000 41.480000000000 23.935210109794
3528 2 1.594500000000 41.480000000000 26.696965122463
3529 1 4.783500000000 46.016875000000 23.014625105571
3530 1 3.189000000000 46.016875000000 25.776380118240
3531 1 3.189000000000 43.424375000000 23.935210109794
3532 1 4.783500000000 43.424375000000 26.696965122463
3533 2 4.783500000000 44.072500000000 23.014625105571
3534 2 3.189000000000 44.072500000000 25.776380118240
3535 2 3.189000000000 41.480000000000 23.935210109794
3536 2 4.783500000000 41.480000000000 26.696965122463
3537 1 7.972500000000 46.016875000000 23.014625105571
3538 1 6.378000000000 46.016875000000 25.776380118240
3539 1 6.378000000000 43.424375000000 23.935210109794
3540 1 7.972500000000 43.424375000000 26.696965122463
3541 2 7.972500000000 44.072500000000 23.014625105571
3542 2 6.378000000000 44.072500000000 25.776380118240
3543 2 6.378000000000 41.480000000000 23.935210109794
3544 2 7.972500000000 41.480000000000 26.696965122463
3545 1 11.161500000000 46.016875000000 23.014625105571
3546 1 9.567000000000 46.016875000000 25.776380118240
3547 1 9.567000000000 43.424375000000 23.935210109794
3548 1 11.161500000000 43.424375000000 26.696965122463
3549 2 11.161500000000 44.072500000000 23.014625105571
3550 2 9.567000000000 44.072500000000 25.776380118240
3551 2 9.567000000000 41.480000000000 23.935210109794
3552 2 11.161500000000 41.480000000000 26.696965122463
3553 1 14.350500000000 46.016875000000 23.014625105571
3554 1 12.756000000000 46.016875000000 25.776380118240
3555 1 12.756000000000 43.424375000000 23.935210109794
3556 1 14.350500000000 43.424375000000 26.696965122463
3557 2 14.350500000000 44.072500000000 23.014625105571
3558 2 12.756000000000 44.072500000000 25.776380118240
3559 2 12.756000000000 41.480000000000 23.935210109794
3560 2 14.350500000000 41.480000000000 26.696965122463
3561 1 17.539500000000 46.016875000000 23.014625105571
3562 1 15.945000000000 46.016875000000 25.776380118240
3563 1 15.945000000000 43.424375000000 23.935210109794
3564 1 17.539500000000 43.424375000000 26.696965122463
3565 2 17.539500000000 44.072500000000 23.014625105571
3566 2 15.945000000000 44.072500000000 25.776380118240
3567 2 15.945000000000 41.480000000000 23.935210109794
3568 2 17.539500000000 41.480000000000 26.696965122463
3569 1 20.728500000000 46.016875000000 23.014625105571
3570 1 19.134000000000 46.016875000000 25.776380118240
3571 1 19.134000000000 43.424375000000 23.935210109794
3572 1 20.728500000000 43.424375000000 26.696965122463
3573 2 20.728500000000 44.072500000000 23.014625105571
3574 2 19.134000000000 44.072500000000 25.776380118240
3575 2 19.134000000000 41.480000000000 23.935210109794
3576 2 20.728500000000 41.480000000000 26.696965122463
3577 1 23.917500000000 46.016875000000 23.014625105571
3578 1 22.323000000000 46.016875000000 25.776380118240
3579 1 22.323000000000 43.424375000000 23.935210109794
3580 1 23.917500000000 43.424375000000 26.696965122463
3581 2 23.917500000000 44.072500000000 23.014625105571
3582 2 22.323000000000 44.072500000000 25.776380118240
3583 2 22.323000000000 41.480000000000 23.935210109794
3584 2 23.917500000000 41.480000000000 26.696965122463
3585 1 27.106500000000 46.016875000000 23.014625105571
3586 1 25.512000000000 46.016875000000 25.776380118240
3587 1 25.512000000000 43.424375000000 23.935210109794
3588 1 27.106500000000 43.424375000000 26.696965122463
3589 2 27.106500000000 44.072500000000 23.014625105571
3590 2 25.512000000000 44.072500000000 25.776380118240
3591 2 25.512000000000 41.480000000000 23.935210109794
3592 2 27.106500000000 41.480000000000 26.696965122463
3593 1 30.295500000000 46.016875000000 23.014625105571
3594 1 28.701000000000 46.016875000000 25.776380118240
3595 1 28.701000000000 43.424375000000 23.935210109794
3596 1 30.295500000000 43.424375000000 26.696965122463
3597 2 30.295500000000 44.072500000000 23.014625105571
3598 2 28.701000000000 44.072500000000 25.776380118240
3599 2 28.701000000000 41.480000000000 23.935210109794
3600 2 30.295500000000 41.480000000000 26.696965122463
3601 1 1.594500000000 51.201875000000 0.920585004223
3602 1 0.000000000000 51.201875000000 3.682340016891
3603 1 0.000000000000 48.609375000000 1.841170008446
3604 1 1.594500000000 48.609375000000 4.602925021114
3605 2 1.594500000000 49.257500000000 0.920585004223
3606 2 0.000000000000 49.257500000000 3.682340016891
3607 2 0.000000000000 46.665000000000 1.841170008446
3608 2 1.594500000000 46.665000000000 4.602925021114
3609 1 4.783500000000 51.201875000000 0.920585004223
3610 1 3.189000000000 51.201875000000 3.682340016891
3611 1 3.189000000000 48.609375000000 1.841170008446
3612 1 4.783500000000 48.609375000000 4.602925021114
3613 2 4.783500000000 49.257500000000 0.920585004223
3614 2 3.189000000000 49.257500000000 3.682340016891
3615 2 3.189000000000 46.665000000000 1.841170008446
3616 2 4.783500000000 46.665000000000 4.602925021114
3617 1 7.972500000000 51.201875000000 0.920585004223
3618 1 6.378000000000 51.201875000000 3.682340016891
3619 1 6.378000000000 48.609375000000 1.841170008446
3620 1 7.972500000000 48.609375000000 4.602925021114
3621 2 7.972500000000 49.257500000000 0.920585004223
3622 2 6.378000000000 49.257500000000 3.682340016891
3623 2 6.378000000000 46.665000000000 1.841170008446
3624 2 7.972500000000 46.665000000000 4.602925021114
3625 1 11.161500000000 51.201875000000 0.920585004223
3626 1 9.567000000000 51.201875000000 3.682340016891
3627 1 9.567000000000 48.609375000000 1.841170008446
3628 1 11.161500000000 48.609375000000 4.602925021114
3629 2 11.161500000000 49.257500000000 0.920585004223
3630 2 9.567000000000 49.257500000000 3.682340016891
3631 2 9.567000000000 46.665000000000 1.841170008446
3632 2 11.161500000000 46.665000000000 4.602925021114
3633 1 14.350500000000 51.201875000000 0.920585004223
3634 1 12.756000000000 51.201875000000 3.682340016891
3635 1 12.756000000000 48.609375000000 1.841170008446
3636 1 14.350500000000 48.609375000000 4.602925021114
3637 2 14.350500000000 49.257500000000 0.920585004223
3638 2 12.756000000000 49.257500000000 3.682340016891
3639 2 12.756000000000 46.665000000000 1.841170008446
3640 2 14.350500000000 46.665000000000 4.602925021114
3641 1 17.539500000000 51.201875000000 0.920585004223
3642 1 15.945000000000 51.201875000000 3.682340016891
3643 1 15.945000000000 48.609375000000 1.841170008446
3644 1 17.539500000000 48.609375000000 4.602925021114
3645 2 17.539500000000 49.257500000000 0.920585004223
3646 2 15.945000000000 49.257500000000 3.682340016891
3647 2 15.945000000000 46.665000000000 1.841170008446
3648 2 17.539500000000 46.665000000000 4.602925021114
3649 1 20.728500000000 51.201875000000 0.920585004223
3650 1 19.134000000000 51.201875000000 3.682340016891
3651 1 19.134000000000 48.609375000000 1.841170008446
3652 1 20.728500000000 48.609375000000 4.602925021114
3653 2 20.728500000000 49.257500000000 0.920585004223
3654 2 19.134000000000 49.257500000000 3.682340016891
3655 2 19.134000000000 46.665000000000 1.841170008446
3656 2 20.728500000000 46.665000000000 4.602925021114
3657 1 23.917500000000 51.201875000000 0.920585004223
3658 1 22.323000000000 51.201875000000 3.682340016891
3659 1 22.323000000000 48.609375000000 1.841170008446
3660 1 23.917500000000 48.609375000000 4.602925021114
3661 2 23.917500000000 49.257500000000 0.920585004223
3662 2 22.323000000000 49.257500000000 3.682340016891
3663 2 22.323000000000 46.665000000000 1.841170008446
3664 2 23.917500000000 46.665000000000 4.602925021114
3665 1 27.106500000000 51.201875000000 0.920585004223
3666 1 25.512000000000 51.201875000000 3.682340016891
3667 1 25.512000000000 48.609375000000 1.841170008446
3668 1 27.106500000000 48.609375000000 4.602925021114
3669 2 27.106500000000 49.257500000000 0.920585004223
3670 2 25.512000000000 49.257500000000 3.682340016891
3671 2 25.512000000000 46.665000000000 1.841170008446
3672 2 27.106500000000 46.665000000000 4.602925021114
3673 1 30.295500000000 51.201875000000 0.920585004223
3674 1 28.701000000000 51.201875000000 3.682340016891
3675 1 28.701000000000 48.609375000000 1.841170008446
3676 1 30.295500000000 48.609375000000 4.602925021114
3677 2 30.295500000000 49.257500000000 0.920585004223
3678 2 28.701000000000 49.257500000000 3.682340016891
3679 2 28.701000000000 46.665000000000 1.841170008446
3680 2 30.295500000000 46.665000000000 4.602925021114
3681 1 1.594500000000 51.201875000000 6.444095029560
3682 1 0.000000000000 51.201875000000 9.205850042229
3683 1 0.000000000000 48.609375000000 7.364680033783
3684 1 1.594500000000 48.609375000000 10.126435046451
3685 2 1.594500000000 49.257500000000 6.444095029560
3686 2 0.000000000000 49.257500000000 9.205850042229
3687 2 0.000000000000 46.665000000000 7.364680033783
3688 2 1.594500000000 46.665000000000 10.126435046451
3689 1 4.783500000000 51.201875000000 6.444095029560
3690 1 3.189000000000 51.201875000000 9.205850042229
3691 1 3.189000000000 48.609375000000 7.364680033783
3692 1 4.783500000000 48.609375000000 10.126435046451
3693 2 4.783500000000 49.257500000000 6.444095029560
3694 2 3.189000000000 49.257500000000 9.205850042229
3695 2 3.189000000000 46.665000000000 7.364680033783
3696 2 4.783500000000 46.665000000000 10.126435046451
3697 1 7.972500000000 51.201875000000 6.444095029560
3698 1 6.378000000000 51.201875000000 9.205850042229
3699 1 6.378000000000 48.609375000000 7.364680033783
3700 1 7.972500000000 48.609375000000 10.126435046451
3701 2 7.972500000000 49.257500000000 6.444095029560
3702 2 6.378000000000 49.257500000000 9.205850042229
3703 2 6.378000000000 46.665000000000 7.364680033783
3704 2 7.972500000000 46.665000000000 10.126435046451
3705 1 11.161500000000 51.201875000000 6.444095029560
3706 1 9.567000000000 51.201875000000 9.205850042229
3707 1 9.567000000000 48.609375000000 7.364680033783
3708 1 11.161500000000 48.609375000000 10.126435046451
3709 2 11.161500000000 49.257500000000 6.444095029560
3710 2 9.567000000000 49.257500000000 9.205850042229
3711 2 9.567000000000 46.665000000000 7.364680033783
3712 2 11.161500000000 46.665000000000 10.126435046451
3713 1 14.350500000000 51.201875000000 6.444095029560
3714 1 12.756000000000 51.201875000000 9.205850042229
3715 1 12.756000000000 48.609375000000 7.364680033783
3716 1 14.350500000000 48.609375000000 10.126435046451
3717 2 14.350500000000 49.257500000000 6.444095029560
3718 2 12.756000000000 49.257500000000 9.205850042229
3719 2 12.756000000000 46.665000000000 7.364680033783
3720 2 14.350500000000 46.665000000000 10.126435046451
3721 1 17.539500000000 51.201875000000 6.444095029560
3722 1 15.945000000000 51.201875000000 9.205850042229
3723 1 15.945000000000 48.609375000000 7.364680033783
3724 1 17.539500000000 48.609375000000 10.126435046451
3725 2 17.539500000000 49.257500000000 6.444095029560
3726 2 15.945000000000 49.257500000000 9.205850042229
3727 2 15.945000000000 46.665000000000 7.364680033783
3728 2 17.539500000000 46.665000000000 10.126435046451
3729 1 20.728500000000 51.201875000000 6.444095029560
3730 1 19.134000000000 51.201875000000 9.205850042229
3731 1 19.134000000000 48.609375000000 7.364680033783
3732 1 20.728500000000 48.609375000000 10.126435046451
3733 2 20.728500000000 49.257500000000 6.444095029560
3734 2 19.134000000000 49.257500000000 9.205850042229
3735 2 19.134000000000 46.665000000000 7.364680033783
3736 2 20.728500000000 46.665000000000 10.126435046451
3737 1 23.917500000000 51.201875000000 6.444095029560
3738 1 22.323000000000 51.201875000000 9.205850042229
3739 1 22.323000000000 48.609375000000 7.364680033783
3740 1 23.917500000000 48.609375000000 10.126435046451
3741 2 23.917500000000 49.257500000000 6.444095029560
3742 2 22.323000000000 49.257500000000 9.205850042229
3743 2 22.323000000000 46.665000000000 7.364680033783
3744 2 23.917500000000 46.665000000000 10.126435046451
3745 1 27.106500000000 51.201875000000 6.444095029560
3746 1 25.512000000000 51.201875000000 9.205850042229
3747 1 25.512000000000 48.609375000000 7.364680033783
3748 1 27.106500000000 48.609375000000 10.126435046451
3749 2 27.106500000000 49.257500000000 6.444095029560
3750 2 25.512000000000 49.257500000000 9.205850042229
3751 2 25.512000000000 46.665000000000 7.364680033783
3752 2 27.106500000000 46.665000000000 10.126435046451
3753 1 30.295500000000 51.201875000000 6.444095029560
3754 1 28.701000000000 51.201875000000 9.205850042229
3755 1 28.701000000000 48.609375000000 7.364680033783
3756 1 30.295500000000 48.609375000000 10.126435046451
3757 2 30.295500000000 49.257500000000 6.444095029560
3758 2 28.701000000000 49.257500000000 9.205850042229
3759 2 28.701000000000 46.665000000000 7.364680033783
3760 2 30.295500000000 46.665000000000 10.126435046451
3761 1 1.594500000000 51.201875000000 11.967605054897
3762 1 0.000000000000 51.201875000000 14.729360067566
3763 1 0.000000000000 48.609375000000 12.888190059120
3764 1 1.594500000000 48.609375000000 15.649945071789
3765 2 1.594500000000 49.257500000000 11.967605054897
3766 2 0.000000000000 49.257500000000 14.729360067566
3767 2 0.000000000000 46.665000000000 12.888190059120
3768 2 1.594500000000 46.665000000000 15.649945071789
3769 1 4.783500000000 51.201875000000 11.967605054897
3770 1 3.189000000000 51.201875000000 14.729360067566
3771 1 3.189000000000 48.609375000000 12.888190059120
3772 1 4.783500000000 48.609375000000 15.649945071789
3773 2 4.783500000000 49.257500000000 11.967605054897
3774 2 3.189000000000 49.257500000000 14.729360067566
3775 2 3.189000000000 46.665000000000 12.888190059120
3776 2 4.783500000000 46.665000000000 15.649945071789
3777 1 7.972500000000 51.201875000000 11.967605054897
3778 1 6.378000000000 51.201875000000 14.729360067566
3779 1 6.378000000000 48.609375000000 12.888190059120
3780 1 7.972500000000 48.609375000000 15.649945071789
3781 2 7.972500000000 49.257500000000 11.967605054897
3782 2 6.378000000000 49.257500000000 14.729360067566
3783 2 6.378000000000 46.665000000000 12.888190059120
3784 2 7.972500000000 46.665000000000 15.649945071789
3785 1 11.161500000000 51.201875000000 11.967605054897
3786 1 9.567000000000 51.201875000000 14.729360067566
3787 1 9.567000000000 48.609375000000 12.888190059120
3788 1 11.161500000000 48.609375000000 15.649945071789
3789 2 11.161500000000 49.257500000000 11.967605054897
3790 2 9.567000000000 49.257500000000 14.729360067566
3791 2 9.567000000000 46.665000000000 12.888190059120
3792 2 11.161500000000 46.665000000000 15.649945071789
3793 1 14.350500000000 51.201875000000 11.967605054897
3794 1 12.756000000000 51.201875000000 14.729360067566
3795 1 12.756000000000 48.609375000000 12.888190059120
3796 1 14.350500000000 48.609375000000 15.649945071789
3797 2 14.350500000000 49.257500000000 11.967605054897
3798 2 12.756000000000 49.257500000000 14.729360067566
3799 2 12.756000000000 46.665000000000 12.888190059120
3800 2 14.350500000000 46.665000000000 15.649945071789
3801 1 17.539500000000 51.201875000000 11.967605054897
3802 1 15.945000000000 51.201875000000 14.729360067566
3803 1 15.945000000000 48.609375000000 12.888190059120
3804 1 17.539500000000 48.609375000000 15.649945071789
3805 2 17.539500000000 49.257500000000 11.967605054897
3806 2 15.945000000000 49.257500000000 14.729360067566
3807 2 15.945000000000 46.665000000000 12.888190059120
3808 2 17.539500000000 46.665000000000 15.649945071789
3809 1 20.728500000000 51.201875000000 11.967605054897
3810 1 19.134000000000 51.201875000000 14.729360067566
3811 1 19.134000000000 48.609375000000 12.888190059120
3812 1 20.728500000000 48.609375000000 15.649945071789
3813 2 20.728500000000 49.257500000000 11.967605054897
3814 2 19.134000000000 49.257500000000 14.729360067566
3815 2 19.134000000000 46.665000000000 12.888190059120
3816 2 20.728500000000 46.665000000000 15.649945071789
3817 1 23.917500000000 51.201875000000 11.967605054897
3818 1 22.323000000000 51.201875000000 14.729360067566
3819 1 22.323000000000 48.609375000000 12.888190059120
3820 1 23.917500000000 48.609375000000 15.649945071789
3821 2 23.917500000000 49.257500000000 11.967605054897
3822 2 22.323000000000 49.257500000000 14.729360067566
3823 2 22.323000000000 46.665000000000 12.888190059120
3824 2 23.917500000000 46.665000000000 15.649945071789
3825 1 27.106500000000 51.201875000000 11.967605054897
3826 1 25.512000000000 51.201875000000 14.729360067566
3827 1 25.512000000000 48.609375000000 12.888190059120
3828 1 27.106500000000 48.609375000000 15.649945071789
3829 2 27.106500000000 49.257500000000 11.967605054897
3830 2 25.512000000000 49.257500000000 14.729360067566
3831 2 25.512000000000 46.665000000000 12.888190059120
3832 2 27.106500000000 46.665000000000 15.649945071789
3833 1 30.295500000000 51.201875000000 11.967605054897
3834 1 28.701000000000 51.201875000000 14.729360067566
3835 1 28.701000000000 48.609375000000 12.888190059120
3836 1 30.295500000000 48.609375000000 15.649945071789
3837 2 30.295500000000 49.257500000000 11.967605054897
3838 2 28.701000000000 49.257500000000 14.729360067566
3839 2 28.701000000000 46.665000000000 12.888190059120
3840 2 30.295500000000 46.665000000000 15.649945071789
3841 1 1.594500000000 51.201875000000 17.491115080234
3842 1 0.000000000000 51.201875000000 20.252870092903
3843 1 0.000000000000 48.609375000000 18.411700084457
3844 1 1.594500000000 48.609375000000 21.173455097126
3845 2 1.594500000000 49.257500000000 17.491115080234
3846 2 0.000000000000 49.257500000000 20.252870092903
3847 2 0.000000000000 46.665000000000 18.411700084457
3848 2 1.594500000000 46.665000000000 21.173455097126
3849 1 4.783500000000 51.201875000000 17.491115080234
3850 1 3.189000000000 51.201875000000 20.252870092903
3851 1 3.189000000000 48.609375000000 18.411700084457
3852 1 4.783500000000 48.609375000000 21.173455097126
3853 2 4.783500000000 49.257500000000 17.491115080234
3854 2 3.189000000000 49.257500000000 20.252870092903
3855 2 3.189000000000 46.665000000000 18.411700084457
3856 2 4.783500000000 46.665000000000 21.173455097126
3857 1 7.972500000000 51.201875000000 17.491115080234
3858 1 6.378000000000 51.201875000000 20.252870092903
3859 1 6.378000000000 48.609375000000 18.411700084457
3860 1 7.972500000000 48.609375000000 21.173455097126
3861 2 7.972500000000 49.257500000000 17.491115080234
3862 2 6.378000000000 49.257500000000 20.252870092903
3863 2 6.378000000000 46.665000000000 18.411700084457
3864 2 7.972500000000 46.665000000000 21.173455097126
3865 1 11.161500000000 51.201875000000 17.491115080234
3866 1 9.567000000000 51.201875000000 20.252870092903
3867 1 9.567000000000 48.609375000000 18.411700084457
3868 1 11.161500000000 48.609375000000 21.173455097126
3869 2 11.161500000000 49.257500000000 17.491115080234
3870 2 9.567000000000 49.257500000000 20.252870092903
3871 2 9.567000000000 46.665000000000 18.411700084457
3872 2 11.161500000000 46.665000000000 21.173455097126
3873 1 14.350500000000 51.201875000000 17.491115080234
3874 1 12.756000000000 51.201875000000 20.252870092903
3875 1 12.756000000000 48.609375000000 18.411700084457
3876 1 14.350500000000 48.609375000000 21.173455097126
3877 2 14.350500000000 49.257500000000 17.491115080234
3878 2 12.756000000000 49.257500000000 20.252870092903
3879 2 12.756000000000 46.665000000000 18.411700084457
3880 2 14.350500000000 46.665000000000 21.173455097126
3881 1 17.539500000000 51.201875000000 17.491115080234
3882 1 15.945000000000 51.201875000000 20.252870092903
3883 1 15.945000000000 48.609375000000 18.411700084457
3884 1 17.539500000000 48.609375000000 21.173455097126
3885 2 17.539500000000 49.257500000000 17.491115080234
3886 2 15.945000000000 49.257500000000 20.252870092903
3887 2 15.945000000000 46.665000000000 18.411700084457
3888 2 17.539500000000 46.665000000000 21.173455097126
3889 1 20.728500000000 51.201875000000 17.491115080234
3890 1 19.134000000000 51.201875000000 20.252870092903
3891 1 19.134000000000 48.609375000000 18.411700084457
3892 1 20.728500000000 48.609375000000 21.173455097126
3893 2 20.728500000000 49.257500000000 17.491115080234
3894 2 19.134000000000 49.257500000000 20.252870092903
3895 2 19.134000000000 46.665000000000 18.411700084457
3896 2 20.728500000000 46.665000000000 21.173455097126
3897 1 23.917500000000 51.201875000000 17.491115080234
3898 1 22.323000000000 51.201875000000 20.252870092903
3899 1 22.323000000000 48.609375000000 18.411700084457
3900 1 23.917500000000 48.609375000000 21.173455097126
3901 2 23.917500000000 49.257500000000 17.491115080234
3902 2 22.323000000000 49.257500000000 20.252870092903
3903 2 22.323000000000 46.665000000000 18.411700084457
3904 2 23.917500000000 46.665000000000 21.173455097126
3905 1 27.106500000000 51.201875000000 17.491115080234
3906 1 25.512000000000 51.201875000000 20.252870092903
3907 1 25.512000000000 48.609375000000 18.411700084457
3908 1 27.106500000000 48.609375000000 21.173455097126
3909 2 27.106500000000 49.257500000000 17.491115080234
3910 2 25.512000000000 49.257500000000 20.252870092903
3911 2 25.512000000000 46.665000000000 18.411700084457
3912 2 27.106500000000 46.665000000000 21.173455097126
3913 1 30.295500000000 51.201875000000 17.491115080234
3914 1 28.701000000000 51.201875000000 20.252870092903
3915 1 28.701000000000 48.609375000000 18.411700084457
3916 1 30.295500000000 48.609375000000 21.173455097126
3917 2 30.295500000000 49.257500000000 17.491115080234
3918 2 28.701000000000 49.257500000000 20.252870092903
3919 2 28.701000000000 46.665000000000 18.411700084457
3920 2 30.295500000000 46.665000000000 21.173455097126
3921 1 1.594500000000 51.201875000000 23.014625105571
3922 1 0.000000000000 51.201875000000 25.776380118240
3923 1 0.000000000000 48.609375000000 23.935210109794
3924 1 1.594500000000 48.609375000000 26.696965122463
3925 2 1.594500000000 49.257500000000 23.014625105571
3926 2 0.000000000000 49.257500000000 25.776380118240
3927 2 0.000000000000 46.665000000000 23.935210109794
3928 2 1.594500000000 46.665000000000 26.696965122463
3929 1 4.783500000000 51.201875000000 23.014625105571
3930 1 3.189000000000 51.201875000000 25.776380118240
3931 1 3.189000000000 48.609375000000 23.935210109794
3932 1 4.783500000000 48.609375000000 26.696965122463
3933 2 4.783500000000 49.257500000000 23.014625105571
3934 2 3.189000000000 49.257500000000 25.776380118240
3935 2 3.189000000000 46.665000000000 23.935210109794
3936 2 4.783500000000 46.665000000000 26.696965122463
3937 1 7.972500000000 51.201875000000 23.014625105571
3938 1 6.378000000000 51.201875000000 25.776380118240
3939 1 6.378000000000 48.609375000000 23.935210109794
3940 1 7.972500000000 48.609375000000 26.696965122463
3941 2 7.972500000000 49.257500000000 23.014625105571
3942 2 6.378000000000 49.257500000000 25.776380118240
3943 2 6.378000000000 46.665000000000 23.935210109794
3944 2 7.972500000000 46.665000000000 26.696965122463
3945 1 11.161500000000 51.201875000000 23.014625105571
3946 1 9.567000000000 51.201875000000 25.776380118240
3947 1 9.567000000000 48.609375000000 23.935210109794
3948 1 11.161500000000 48.609375000000 26.696965122463
3949 2 11.161500000000 49.257500000000 23.014625105571
3950 2 9.567000000000 49.257500000000 25.776380118240
3951 2 9.567000000000 46.665000000000 23.935210109794
3952 2 11.161500000000 46.665000000000 26.696965122463
3953 1 14.350500000000 51.201875000000 23.014625105571
3954 1 12.756000000000 51.201875000000 25.776380118240
3955 1 12.756000000000 48.609375000000 23.935210109794
3956 1 14.350500000000 48.609375000000 26.696965122463
3957 2 14.350500000000 49.257500000000 23.014625105571
3958 2 12.756000000000 49.257500000000 25.776380118240
3959 2 12.756000000000 46.665000000000 23.935210109794
3960 2 14.350500000000 46.665000000000 26.696965122463
3961 1 17.539500000000 51.201875000000 23.014625105571
3962 1 15.945000000000 51.201875000000 25.776380118240
3963 1 15.945000000000 48.609375000000 23.935210109794
3964 1 17.539500000000 48.609375000000 26.696965122463
3965 2 17.539500000000 49.257500000000 23.014625105571
3966 2 15.945000000000 49.257500000000 25.776380118240
3967 2 15.945000000000 46.665000000000 23.935210109794
3968 2 17.539500000000 46.665000000000 26.696965122463
3969 1 20.728500000000 51.201875000000 23.014625105571
3970 1 19.134000000000 51.201875000000 25.776380118240
3971 1 19.134000000000 48.609375000000 23.935210109794
3972 1 20.728500000000 48.609375000000 26.696965122463
3973 2 20.728500000000 49.257500000000 23.014625105571
3974 2 19.134000000000 49.257500000000 25.776380118240
3975 2 19.134000000000 46.665000000000 23.935210109794
3976 2 20.728500000000 46.665000000000 26.696965122463
3977 1 23.917500000000 51.201875000000 23.014625105571
3978 1 22.323000000000 51.201875000000 25.776380118240
3979 1 22.323000000000 48.609375000000 23.935210109794
3980 1 23.917500000000 48.609375000000 26.696965122463
3981 2 23.917500000000 49.257500000000 23.014625105571
3982 2 22.323000000000 49.257500000000 25.776380118240
3983 2 22.323000000000 46.665000000000 23.935210109794
3984 2 23.917500000000 46.665000000000 26.696965122463
3985 1 27.106500000000 51.201875000000 23.014625105571
3986 1 25.512000000000 51.201875000000 25.776380118240
3987 1 25.512000000000 48.609375000000 23.935210109794
3988 1 27.106500000000 48.609375000000 26.696965122463
3989 2 27.106500000000 49.257500000000 23.014625105571
3990 2 25.512000000000 49.257500000000 25.776380118240
3991 2 25.512000000000 46.665000000000 23.935210109794
3992 2 27.106500000000 46.665000000000 26.696965122463
3993 1 30.295500000000 51.201875000000 23.014625105571
3994 1 28.701000000000 51.201875000000 25.776380118240
3995 1 28.701000000000 48.609375000000 23.935210109794
3996 1 30.295500000000 48.609375000000 26.696965122463
3997 2 30.295500000000 49.257500000000 23.014625105571
3998 2 28.701000000000 49.257500000000 25.776380118240
3999 2 28.701000000000 46.665000000000 23.935210109794
4000 2 30.295500000000 46.665000000000 26.696965122463
